*Heading
** Job name: Job-25-DYNA-EXPL Model name: Model-DYNAMIC-EXPLICIT
** Generated by: Abaqus/CAE 2025
*Preprint, echo=NO, model=NO, history=NO, contact=NO
**
** PARTS
**
*Part, name=Rigid_Substrate
*Node
      1,           0.,           0.
      2,           0.,           7.
      3,         -50.,           7.
      4,         -50.,           0.
      5,          50.,           0.
      6,          50.,           7.
      7,           0.,          3.5
      8, -0.200000003,           7.
      9, -0.400000006,           7.
     10, -0.600000024,           7.
     11, -0.800000012,           7.
     12,          -1.,           7.
     13,  -1.20000005,           7.
     14,  -1.39999998,           7.
     15,  -1.60000002,           7.
     16,  -1.79999995,           7.
     17,          -2.,           7.
     18,  -2.20000005,           7.
     19,   -2.4000001,           7.
     20,   -2.5999999,           7.
     21,  -2.79999995,           7.
     22,          -3.,           7.
     23,  -3.20000005,           7.
     24,   -3.4000001,           7.
     25,   -3.5999999,           7.
     26,  -3.79999995,           7.
     27,          -4.,           7.
     28,  -4.19999981,           7.
     29,   -4.4000001,           7.
     30,   -4.5999999,           7.
     31,  -4.80000019,           7.
     32,          -5.,           7.
     33,  -5.19999981,           7.
     34,   -5.4000001,           7.
     35,   -5.5999999,           7.
     36,  -5.80000019,           7.
     37,          -6.,           7.
     38,  -6.19999981,           7.
     39,   -6.4000001,           7.
     40,   -6.5999999,           7.
     41,  -6.80000019,           7.
     42,          -7.,           7.
     43,  -7.19999981,           7.
     44,   -7.4000001,           7.
     45,   -7.5999999,           7.
     46,  -7.80000019,           7.
     47,          -8.,           7.
     48,  -8.19999981,           7.
     49,  -8.39999962,           7.
     50,  -8.60000038,           7.
     51,  -8.80000019,           7.
     52,          -9.,           7.
     53,  -9.19999981,           7.
     54,  -9.39999962,           7.
     55,  -9.60000038,           7.
     56,  -9.80000019,           7.
     57,         -10.,           7.
     58,  -10.1999998,           7.
     59,  -10.3999996,           7.
     60,  -10.6000004,           7.
     61,  -10.8000002,           7.
     62,         -11.,           7.
     63,  -11.1999998,           7.
     64,  -11.3999996,           7.
     65,  -11.6000004,           7.
     66,  -11.8000002,           7.
     67,         -12.,           7.
     68,  -12.1999998,           7.
     69,  -12.3999996,           7.
     70,  -12.6000004,           7.
     71,  -12.8000002,           7.
     72,         -13.,           7.
     73,  -13.1999998,           7.
     74,  -13.3999996,           7.
     75,  -13.6000004,           7.
     76,  -13.8000002,           7.
     77,         -14.,           7.
     78,  -14.1999998,           7.
     79,  -14.3999996,           7.
     80,  -14.6000004,           7.
     81,  -14.8000002,           7.
     82,         -15.,           7.
     83,  -15.1999998,           7.
     84,  -15.3999996,           7.
     85,  -15.6000004,           7.
     86,  -15.8000002,           7.
     87,         -16.,           7.
     88,  -16.2000008,           7.
     89,  -16.3999996,           7.
     90,  -16.6000004,           7.
     91,  -16.7999992,           7.
     92,         -17.,           7.
     93,  -17.2000008,           7.
     94,  -17.3999996,           7.
     95,  -17.6000004,           7.
     96,  -17.7999992,           7.
     97,         -18.,           7.
     98,  -18.2000008,           7.
     99,  -18.3999996,           7.
    100,  -18.6000004,           7.
    101,  -18.7999992,           7.
    102,         -19.,           7.
    103,  -19.2000008,           7.
    104,  -19.3999996,           7.
    105,  -19.6000004,           7.
    106,  -19.7999992,           7.
    107,         -20.,           7.
    108,  -20.2000008,           7.
    109,  -20.3999996,           7.
    110,  -20.6000004,           7.
    111,  -20.7999992,           7.
    112,         -21.,           7.
    113,  -21.2000008,           7.
    114,  -21.3999996,           7.
    115,  -21.6000004,           7.
    116,  -21.7999992,           7.
    117,         -22.,           7.
    118,  -22.2000008,           7.
    119,  -22.3999996,           7.
    120,  -22.6000004,           7.
    121,  -22.7999992,           7.
    122,         -23.,           7.
    123,  -23.2000008,           7.
    124,  -23.3999996,           7.
    125,  -23.6000004,           7.
    126,  -23.7999992,           7.
    127,         -24.,           7.
    128,  -24.2000008,           7.
    129,  -24.3999996,           7.
    130,  -24.6000004,           7.
    131,  -24.7999992,           7.
    132,         -25.,           7.
    133,  -25.2000008,           7.
    134,  -25.3999996,           7.
    135,  -25.6000004,           7.
    136,  -25.7999992,           7.
    137,         -26.,           7.
    138,  -26.2000008,           7.
    139,  -26.3999996,           7.
    140,  -26.6000004,           7.
    141,  -26.7999992,           7.
    142,         -27.,           7.
    143,  -27.2000008,           7.
    144,  -27.3999996,           7.
    145,  -27.6000004,           7.
    146,  -27.7999992,           7.
    147,         -28.,           7.
    148,  -28.2000008,           7.
    149,  -28.3999996,           7.
    150,  -28.6000004,           7.
    151,  -28.7999992,           7.
    152,         -29.,           7.
    153,  -29.2000008,           7.
    154,  -29.3999996,           7.
    155,  -29.6000004,           7.
    156,  -29.7999992,           7.
    157,         -30.,           7.
    158,  -30.2000008,           7.
    159,  -30.3999996,           7.
    160,  -30.6000004,           7.
    161,  -30.7999992,           7.
    162,         -31.,           7.
    163,  -31.2000008,           7.
    164,  -31.3999996,           7.
    165,  -31.6000004,           7.
    166,  -31.7999992,           7.
    167,         -32.,           7.
    168,  -32.2000008,           7.
    169,  -32.4000015,           7.
    170,  -32.5999985,           7.
    171,  -32.7999992,           7.
    172,         -33.,           7.
    173,  -33.2000008,           7.
    174,  -33.4000015,           7.
    175,  -33.5999985,           7.
    176,  -33.7999992,           7.
    177,         -34.,           7.
    178,  -34.2000008,           7.
    179,  -34.4000015,           7.
    180,  -34.5999985,           7.
    181,  -34.7999992,           7.
    182,         -35.,           7.
    183,  -35.2000008,           7.
    184,  -35.4000015,           7.
    185,  -35.5999985,           7.
    186,  -35.7999992,           7.
    187,         -36.,           7.
    188,  -36.2000008,           7.
    189,  -36.4000015,           7.
    190,  -36.5999985,           7.
    191,  -36.7999992,           7.
    192,         -37.,           7.
    193,  -37.2000008,           7.
    194,  -37.4000015,           7.
    195,  -37.5999985,           7.
    196,  -37.7999992,           7.
    197,         -38.,           7.
    198,  -38.2000008,           7.
    199,  -38.4000015,           7.
    200,  -38.5999985,           7.
    201,  -38.7999992,           7.
    202,         -39.,           7.
    203,  -39.2000008,           7.
    204,  -39.4000015,           7.
    205,  -39.5999985,           7.
    206,  -39.7999992,           7.
    207,         -40.,           7.
    208,  -40.2000008,           7.
    209,  -40.4000015,           7.
    210,  -40.5999985,           7.
    211,  -40.7999992,           7.
    212,         -41.,           7.
    213,  -41.2000008,           7.
    214,  -41.4000015,           7.
    215,  -41.5999985,           7.
    216,  -41.7999992,           7.
    217,         -42.,           7.
    218,  -42.2000008,           7.
    219,  -42.4000015,           7.
    220,  -42.5999985,           7.
    221,  -42.7999992,           7.
    222,         -43.,           7.
    223,  -43.2000008,           7.
    224,  -43.4000015,           7.
    225,  -43.5999985,           7.
    226,  -43.7999992,           7.
    227,         -44.,           7.
    228,  -44.2000008,           7.
    229,  -44.4000015,           7.
    230,  -44.5999985,           7.
    231,  -44.7999992,           7.
    232,         -45.,           7.
    233,  -45.2000008,           7.
    234,  -45.4000015,           7.
    235,  -45.5999985,           7.
    236,  -45.7999992,           7.
    237,         -46.,           7.
    238,  -46.2000008,           7.
    239,  -46.4000015,           7.
    240,  -46.5999985,           7.
    241,  -46.7999992,           7.
    242,         -47.,           7.
    243,  -47.2000008,           7.
    244,  -47.4000015,           7.
    245,  -47.5999985,           7.
    246,  -47.7999992,           7.
    247,         -48.,           7.
    248,  -48.2000008,           7.
    249,  -48.4000015,           7.
    250,  -48.5999985,           7.
    251,  -48.7999992,           7.
    252,         -49.,           7.
    253,  -49.2000008,           7.
    254,  -49.4000015,           7.
    255,  -49.5999985,           7.
    256,  -49.7999992,           7.
    257,         -50.,          3.5
    258,  -49.7999992,           0.
    259,  -49.5999985,           0.
    260,  -49.4000015,           0.
    261,  -49.2000008,           0.
    262,         -49.,           0.
    263,  -48.7999992,           0.
    264,  -48.5999985,           0.
    265,  -48.4000015,           0.
    266,  -48.2000008,           0.
    267,         -48.,           0.
    268,  -47.7999992,           0.
    269,  -47.5999985,           0.
    270,  -47.4000015,           0.
    271,  -47.2000008,           0.
    272,         -47.,           0.
    273,  -46.7999992,           0.
    274,  -46.5999985,           0.
    275,  -46.4000015,           0.
    276,  -46.2000008,           0.
    277,         -46.,           0.
    278,  -45.7999992,           0.
    279,  -45.5999985,           0.
    280,  -45.4000015,           0.
    281,  -45.2000008,           0.
    282,         -45.,           0.
    283,  -44.7999992,           0.
    284,  -44.5999985,           0.
    285,  -44.4000015,           0.
    286,  -44.2000008,           0.
    287,         -44.,           0.
    288,  -43.7999992,           0.
    289,  -43.5999985,           0.
    290,  -43.4000015,           0.
    291,  -43.2000008,           0.
    292,         -43.,           0.
    293,  -42.7999992,           0.
    294,  -42.5999985,           0.
    295,  -42.4000015,           0.
    296,  -42.2000008,           0.
    297,         -42.,           0.
    298,  -41.7999992,           0.
    299,  -41.5999985,           0.
    300,  -41.4000015,           0.
    301,  -41.2000008,           0.
    302,         -41.,           0.
    303,  -40.7999992,           0.
    304,  -40.5999985,           0.
    305,  -40.4000015,           0.
    306,  -40.2000008,           0.
    307,         -40.,           0.
    308,  -39.7999992,           0.
    309,  -39.5999985,           0.
    310,  -39.4000015,           0.
    311,  -39.2000008,           0.
    312,         -39.,           0.
    313,  -38.7999992,           0.
    314,  -38.5999985,           0.
    315,  -38.4000015,           0.
    316,  -38.2000008,           0.
    317,         -38.,           0.
    318,  -37.7999992,           0.
    319,  -37.5999985,           0.
    320,  -37.4000015,           0.
    321,  -37.2000008,           0.
    322,         -37.,           0.
    323,  -36.7999992,           0.
    324,  -36.5999985,           0.
    325,  -36.4000015,           0.
    326,  -36.2000008,           0.
    327,         -36.,           0.
    328,  -35.7999992,           0.
    329,  -35.5999985,           0.
    330,  -35.4000015,           0.
    331,  -35.2000008,           0.
    332,         -35.,           0.
    333,  -34.7999992,           0.
    334,  -34.5999985,           0.
    335,  -34.4000015,           0.
    336,  -34.2000008,           0.
    337,         -34.,           0.
    338,  -33.7999992,           0.
    339,  -33.5999985,           0.
    340,  -33.4000015,           0.
    341,  -33.2000008,           0.
    342,         -33.,           0.
    343,  -32.7999992,           0.
    344,  -32.5999985,           0.
    345,  -32.4000015,           0.
    346,  -32.2000008,           0.
    347,         -32.,           0.
    348,  -31.7999992,           0.
    349,  -31.6000004,           0.
    350,  -31.3999996,           0.
    351,  -31.2000008,           0.
    352,         -31.,           0.
    353,  -30.7999992,           0.
    354,  -30.6000004,           0.
    355,  -30.3999996,           0.
    356,  -30.2000008,           0.
    357,         -30.,           0.
    358,  -29.7999992,           0.
    359,  -29.6000004,           0.
    360,  -29.3999996,           0.
    361,  -29.2000008,           0.
    362,         -29.,           0.
    363,  -28.7999992,           0.
    364,  -28.6000004,           0.
    365,  -28.3999996,           0.
    366,  -28.2000008,           0.
    367,         -28.,           0.
    368,  -27.7999992,           0.
    369,  -27.6000004,           0.
    370,  -27.3999996,           0.
    371,  -27.2000008,           0.
    372,         -27.,           0.
    373,  -26.7999992,           0.
    374,  -26.6000004,           0.
    375,  -26.3999996,           0.
    376,  -26.2000008,           0.
    377,         -26.,           0.
    378,  -25.7999992,           0.
    379,  -25.6000004,           0.
    380,  -25.3999996,           0.
    381,  -25.2000008,           0.
    382,         -25.,           0.
    383,  -24.7999992,           0.
    384,  -24.6000004,           0.
    385,  -24.3999996,           0.
    386,  -24.2000008,           0.
    387,         -24.,           0.
    388,  -23.7999992,           0.
    389,  -23.6000004,           0.
    390,  -23.3999996,           0.
    391,  -23.2000008,           0.
    392,         -23.,           0.
    393,  -22.7999992,           0.
    394,  -22.6000004,           0.
    395,  -22.3999996,           0.
    396,  -22.2000008,           0.
    397,         -22.,           0.
    398,  -21.7999992,           0.
    399,  -21.6000004,           0.
    400,  -21.3999996,           0.
    401,  -21.2000008,           0.
    402,         -21.,           0.
    403,  -20.7999992,           0.
    404,  -20.6000004,           0.
    405,  -20.3999996,           0.
    406,  -20.2000008,           0.
    407,         -20.,           0.
    408,  -19.7999992,           0.
    409,  -19.6000004,           0.
    410,  -19.3999996,           0.
    411,  -19.2000008,           0.
    412,         -19.,           0.
    413,  -18.7999992,           0.
    414,  -18.6000004,           0.
    415,  -18.3999996,           0.
    416,  -18.2000008,           0.
    417,         -18.,           0.
    418,  -17.7999992,           0.
    419,  -17.6000004,           0.
    420,  -17.3999996,           0.
    421,  -17.2000008,           0.
    422,         -17.,           0.
    423,  -16.7999992,           0.
    424,  -16.6000004,           0.
    425,  -16.3999996,           0.
    426,  -16.2000008,           0.
    427,         -16.,           0.
    428,  -15.8000002,           0.
    429,  -15.6000004,           0.
    430,  -15.3999996,           0.
    431,  -15.1999998,           0.
    432,         -15.,           0.
    433,  -14.8000002,           0.
    434,  -14.6000004,           0.
    435,  -14.3999996,           0.
    436,  -14.1999998,           0.
    437,         -14.,           0.
    438,  -13.8000002,           0.
    439,  -13.6000004,           0.
    440,  -13.3999996,           0.
    441,  -13.1999998,           0.
    442,         -13.,           0.
    443,  -12.8000002,           0.
    444,  -12.6000004,           0.
    445,  -12.3999996,           0.
    446,  -12.1999998,           0.
    447,         -12.,           0.
    448,  -11.8000002,           0.
    449,  -11.6000004,           0.
    450,  -11.3999996,           0.
    451,  -11.1999998,           0.
    452,         -11.,           0.
    453,  -10.8000002,           0.
    454,  -10.6000004,           0.
    455,  -10.3999996,           0.
    456,  -10.1999998,           0.
    457,         -10.,           0.
    458,  -9.80000019,           0.
    459,  -9.60000038,           0.
    460,  -9.39999962,           0.
    461,  -9.19999981,           0.
    462,          -9.,           0.
    463,  -8.80000019,           0.
    464,  -8.60000038,           0.
    465,  -8.39999962,           0.
    466,  -8.19999981,           0.
    467,          -8.,           0.
    468,  -7.80000019,           0.
    469,   -7.5999999,           0.
    470,   -7.4000001,           0.
    471,  -7.19999981,           0.
    472,          -7.,           0.
    473,  -6.80000019,           0.
    474,   -6.5999999,           0.
    475,   -6.4000001,           0.
    476,  -6.19999981,           0.
    477,          -6.,           0.
    478,  -5.80000019,           0.
    479,   -5.5999999,           0.
    480,   -5.4000001,           0.
    481,  -5.19999981,           0.
    482,          -5.,           0.
    483,  -4.80000019,           0.
    484,   -4.5999999,           0.
    485,   -4.4000001,           0.
    486,  -4.19999981,           0.
    487,          -4.,           0.
    488,  -3.79999995,           0.
    489,   -3.5999999,           0.
    490,   -3.4000001,           0.
    491,  -3.20000005,           0.
    492,          -3.,           0.
    493,  -2.79999995,           0.
    494,   -2.5999999,           0.
    495,   -2.4000001,           0.
    496,  -2.20000005,           0.
    497,          -2.,           0.
    498,  -1.79999995,           0.
    499,  -1.60000002,           0.
    500,  -1.39999998,           0.
    501,  -1.20000005,           0.
    502,          -1.,           0.
    503, -0.800000012,           0.
    504, -0.600000024,           0.
    505, -0.400000006,           0.
    506, -0.200000003,           0.
    507,  0.200000003,           0.
    508,  0.400000006,           0.
    509,  0.600000024,           0.
    510,  0.800000012,           0.
    511,           1.,           0.
    512,   1.20000005,           0.
    513,   1.39999998,           0.
    514,   1.60000002,           0.
    515,   1.79999995,           0.
    516,           2.,           0.
    517,   2.20000005,           0.
    518,    2.4000001,           0.
    519,    2.5999999,           0.
    520,   2.79999995,           0.
    521,           3.,           0.
    522,   3.20000005,           0.
    523,    3.4000001,           0.
    524,    3.5999999,           0.
    525,   3.79999995,           0.
    526,           4.,           0.
    527,   4.19999981,           0.
    528,    4.4000001,           0.
    529,    4.5999999,           0.
    530,   4.80000019,           0.
    531,           5.,           0.
    532,   5.19999981,           0.
    533,    5.4000001,           0.
    534,    5.5999999,           0.
    535,   5.80000019,           0.
    536,           6.,           0.
    537,   6.19999981,           0.
    538,    6.4000001,           0.
    539,    6.5999999,           0.
    540,   6.80000019,           0.
    541,           7.,           0.
    542,   7.19999981,           0.
    543,    7.4000001,           0.
    544,    7.5999999,           0.
    545,   7.80000019,           0.
    546,           8.,           0.
    547,   8.19999981,           0.
    548,   8.39999962,           0.
    549,   8.60000038,           0.
    550,   8.80000019,           0.
    551,           9.,           0.
    552,   9.19999981,           0.
    553,   9.39999962,           0.
    554,   9.60000038,           0.
    555,   9.80000019,           0.
    556,          10.,           0.
    557,   10.1999998,           0.
    558,   10.3999996,           0.
    559,   10.6000004,           0.
    560,   10.8000002,           0.
    561,          11.,           0.
    562,   11.1999998,           0.
    563,   11.3999996,           0.
    564,   11.6000004,           0.
    565,   11.8000002,           0.
    566,          12.,           0.
    567,   12.1999998,           0.
    568,   12.3999996,           0.
    569,   12.6000004,           0.
    570,   12.8000002,           0.
    571,          13.,           0.
    572,   13.1999998,           0.
    573,   13.3999996,           0.
    574,   13.6000004,           0.
    575,   13.8000002,           0.
    576,          14.,           0.
    577,   14.1999998,           0.
    578,   14.3999996,           0.
    579,   14.6000004,           0.
    580,   14.8000002,           0.
    581,          15.,           0.
    582,   15.1999998,           0.
    583,   15.3999996,           0.
    584,   15.6000004,           0.
    585,   15.8000002,           0.
    586,          16.,           0.
    587,   16.2000008,           0.
    588,   16.3999996,           0.
    589,   16.6000004,           0.
    590,   16.7999992,           0.
    591,          17.,           0.
    592,   17.2000008,           0.
    593,   17.3999996,           0.
    594,   17.6000004,           0.
    595,   17.7999992,           0.
    596,          18.,           0.
    597,   18.2000008,           0.
    598,   18.3999996,           0.
    599,   18.6000004,           0.
    600,   18.7999992,           0.
    601,          19.,           0.
    602,   19.2000008,           0.
    603,   19.3999996,           0.
    604,   19.6000004,           0.
    605,   19.7999992,           0.
    606,          20.,           0.
    607,   20.2000008,           0.
    608,   20.3999996,           0.
    609,   20.6000004,           0.
    610,   20.7999992,           0.
    611,          21.,           0.
    612,   21.2000008,           0.
    613,   21.3999996,           0.
    614,   21.6000004,           0.
    615,   21.7999992,           0.
    616,          22.,           0.
    617,   22.2000008,           0.
    618,   22.3999996,           0.
    619,   22.6000004,           0.
    620,   22.7999992,           0.
    621,          23.,           0.
    622,   23.2000008,           0.
    623,   23.3999996,           0.
    624,   23.6000004,           0.
    625,   23.7999992,           0.
    626,          24.,           0.
    627,   24.2000008,           0.
    628,   24.3999996,           0.
    629,   24.6000004,           0.
    630,   24.7999992,           0.
    631,          25.,           0.
    632,   25.2000008,           0.
    633,   25.3999996,           0.
    634,   25.6000004,           0.
    635,   25.7999992,           0.
    636,          26.,           0.
    637,   26.2000008,           0.
    638,   26.3999996,           0.
    639,   26.6000004,           0.
    640,   26.7999992,           0.
    641,          27.,           0.
    642,   27.2000008,           0.
    643,   27.3999996,           0.
    644,   27.6000004,           0.
    645,   27.7999992,           0.
    646,          28.,           0.
    647,   28.2000008,           0.
    648,   28.3999996,           0.
    649,   28.6000004,           0.
    650,   28.7999992,           0.
    651,          29.,           0.
    652,   29.2000008,           0.
    653,   29.3999996,           0.
    654,   29.6000004,           0.
    655,   29.7999992,           0.
    656,          30.,           0.
    657,   30.2000008,           0.
    658,   30.3999996,           0.
    659,   30.6000004,           0.
    660,   30.7999992,           0.
    661,          31.,           0.
    662,   31.2000008,           0.
    663,   31.3999996,           0.
    664,   31.6000004,           0.
    665,   31.7999992,           0.
    666,          32.,           0.
    667,   32.2000008,           0.
    668,   32.4000015,           0.
    669,   32.5999985,           0.
    670,   32.7999992,           0.
    671,          33.,           0.
    672,   33.2000008,           0.
    673,   33.4000015,           0.
    674,   33.5999985,           0.
    675,   33.7999992,           0.
    676,          34.,           0.
    677,   34.2000008,           0.
    678,   34.4000015,           0.
    679,   34.5999985,           0.
    680,   34.7999992,           0.
    681,          35.,           0.
    682,   35.2000008,           0.
    683,   35.4000015,           0.
    684,   35.5999985,           0.
    685,   35.7999992,           0.
    686,          36.,           0.
    687,   36.2000008,           0.
    688,   36.4000015,           0.
    689,   36.5999985,           0.
    690,   36.7999992,           0.
    691,          37.,           0.
    692,   37.2000008,           0.
    693,   37.4000015,           0.
    694,   37.5999985,           0.
    695,   37.7999992,           0.
    696,          38.,           0.
    697,   38.2000008,           0.
    698,   38.4000015,           0.
    699,   38.5999985,           0.
    700,   38.7999992,           0.
    701,          39.,           0.
    702,   39.2000008,           0.
    703,   39.4000015,           0.
    704,   39.5999985,           0.
    705,   39.7999992,           0.
    706,          40.,           0.
    707,   40.2000008,           0.
    708,   40.4000015,           0.
    709,   40.5999985,           0.
    710,   40.7999992,           0.
    711,          41.,           0.
    712,   41.2000008,           0.
    713,   41.4000015,           0.
    714,   41.5999985,           0.
    715,   41.7999992,           0.
    716,          42.,           0.
    717,   42.2000008,           0.
    718,   42.4000015,           0.
    719,   42.5999985,           0.
    720,   42.7999992,           0.
    721,          43.,           0.
    722,   43.2000008,           0.
    723,   43.4000015,           0.
    724,   43.5999985,           0.
    725,   43.7999992,           0.
    726,          44.,           0.
    727,   44.2000008,           0.
    728,   44.4000015,           0.
    729,   44.5999985,           0.
    730,   44.7999992,           0.
    731,          45.,           0.
    732,   45.2000008,           0.
    733,   45.4000015,           0.
    734,   45.5999985,           0.
    735,   45.7999992,           0.
    736,          46.,           0.
    737,   46.2000008,           0.
    738,   46.4000015,           0.
    739,   46.5999985,           0.
    740,   46.7999992,           0.
    741,          47.,           0.
    742,   47.2000008,           0.
    743,   47.4000015,           0.
    744,   47.5999985,           0.
    745,   47.7999992,           0.
    746,          48.,           0.
    747,   48.2000008,           0.
    748,   48.4000015,           0.
    749,   48.5999985,           0.
    750,   48.7999992,           0.
    751,          49.,           0.
    752,   49.2000008,           0.
    753,   49.4000015,           0.
    754,   49.5999985,           0.
    755,   49.7999992,           0.
    756,          50.,          3.5
    757,   49.7999992,           7.
    758,   49.5999985,           7.
    759,   49.4000015,           7.
    760,   49.2000008,           7.
    761,          49.,           7.
    762,   48.7999992,           7.
    763,   48.5999985,           7.
    764,   48.4000015,           7.
    765,   48.2000008,           7.
    766,          48.,           7.
    767,   47.7999992,           7.
    768,   47.5999985,           7.
    769,   47.4000015,           7.
    770,   47.2000008,           7.
    771,          47.,           7.
    772,   46.7999992,           7.
    773,   46.5999985,           7.
    774,   46.4000015,           7.
    775,   46.2000008,           7.
    776,          46.,           7.
    777,   45.7999992,           7.
    778,   45.5999985,           7.
    779,   45.4000015,           7.
    780,   45.2000008,           7.
    781,          45.,           7.
    782,   44.7999992,           7.
    783,   44.5999985,           7.
    784,   44.4000015,           7.
    785,   44.2000008,           7.
    786,          44.,           7.
    787,   43.7999992,           7.
    788,   43.5999985,           7.
    789,   43.4000015,           7.
    790,   43.2000008,           7.
    791,          43.,           7.
    792,   42.7999992,           7.
    793,   42.5999985,           7.
    794,   42.4000015,           7.
    795,   42.2000008,           7.
    796,          42.,           7.
    797,   41.7999992,           7.
    798,   41.5999985,           7.
    799,   41.4000015,           7.
    800,   41.2000008,           7.
    801,          41.,           7.
    802,   40.7999992,           7.
    803,   40.5999985,           7.
    804,   40.4000015,           7.
    805,   40.2000008,           7.
    806,          40.,           7.
    807,   39.7999992,           7.
    808,   39.5999985,           7.
    809,   39.4000015,           7.
    810,   39.2000008,           7.
    811,          39.,           7.
    812,   38.7999992,           7.
    813,   38.5999985,           7.
    814,   38.4000015,           7.
    815,   38.2000008,           7.
    816,          38.,           7.
    817,   37.7999992,           7.
    818,   37.5999985,           7.
    819,   37.4000015,           7.
    820,   37.2000008,           7.
    821,          37.,           7.
    822,   36.7999992,           7.
    823,   36.5999985,           7.
    824,   36.4000015,           7.
    825,   36.2000008,           7.
    826,          36.,           7.
    827,   35.7999992,           7.
    828,   35.5999985,           7.
    829,   35.4000015,           7.
    830,   35.2000008,           7.
    831,          35.,           7.
    832,   34.7999992,           7.
    833,   34.5999985,           7.
    834,   34.4000015,           7.
    835,   34.2000008,           7.
    836,          34.,           7.
    837,   33.7999992,           7.
    838,   33.5999985,           7.
    839,   33.4000015,           7.
    840,   33.2000008,           7.
    841,          33.,           7.
    842,   32.7999992,           7.
    843,   32.5999985,           7.
    844,   32.4000015,           7.
    845,   32.2000008,           7.
    846,          32.,           7.
    847,   31.7999992,           7.
    848,   31.6000004,           7.
    849,   31.3999996,           7.
    850,   31.2000008,           7.
    851,          31.,           7.
    852,   30.7999992,           7.
    853,   30.6000004,           7.
    854,   30.3999996,           7.
    855,   30.2000008,           7.
    856,          30.,           7.
    857,   29.7999992,           7.
    858,   29.6000004,           7.
    859,   29.3999996,           7.
    860,   29.2000008,           7.
    861,          29.,           7.
    862,   28.7999992,           7.
    863,   28.6000004,           7.
    864,   28.3999996,           7.
    865,   28.2000008,           7.
    866,          28.,           7.
    867,   27.7999992,           7.
    868,   27.6000004,           7.
    869,   27.3999996,           7.
    870,   27.2000008,           7.
    871,          27.,           7.
    872,   26.7999992,           7.
    873,   26.6000004,           7.
    874,   26.3999996,           7.
    875,   26.2000008,           7.
    876,          26.,           7.
    877,   25.7999992,           7.
    878,   25.6000004,           7.
    879,   25.3999996,           7.
    880,   25.2000008,           7.
    881,          25.,           7.
    882,   24.7999992,           7.
    883,   24.6000004,           7.
    884,   24.3999996,           7.
    885,   24.2000008,           7.
    886,          24.,           7.
    887,   23.7999992,           7.
    888,   23.6000004,           7.
    889,   23.3999996,           7.
    890,   23.2000008,           7.
    891,          23.,           7.
    892,   22.7999992,           7.
    893,   22.6000004,           7.
    894,   22.3999996,           7.
    895,   22.2000008,           7.
    896,          22.,           7.
    897,   21.7999992,           7.
    898,   21.6000004,           7.
    899,   21.3999996,           7.
    900,   21.2000008,           7.
    901,          21.,           7.
    902,   20.7999992,           7.
    903,   20.6000004,           7.
    904,   20.3999996,           7.
    905,   20.2000008,           7.
    906,          20.,           7.
    907,   19.7999992,           7.
    908,   19.6000004,           7.
    909,   19.3999996,           7.
    910,   19.2000008,           7.
    911,          19.,           7.
    912,   18.7999992,           7.
    913,   18.6000004,           7.
    914,   18.3999996,           7.
    915,   18.2000008,           7.
    916,          18.,           7.
    917,   17.7999992,           7.
    918,   17.6000004,           7.
    919,   17.3999996,           7.
    920,   17.2000008,           7.
    921,          17.,           7.
    922,   16.7999992,           7.
    923,   16.6000004,           7.
    924,   16.3999996,           7.
    925,   16.2000008,           7.
    926,          16.,           7.
    927,   15.8000002,           7.
    928,   15.6000004,           7.
    929,   15.3999996,           7.
    930,   15.1999998,           7.
    931,          15.,           7.
    932,   14.8000002,           7.
    933,   14.6000004,           7.
    934,   14.3999996,           7.
    935,   14.1999998,           7.
    936,          14.,           7.
    937,   13.8000002,           7.
    938,   13.6000004,           7.
    939,   13.3999996,           7.
    940,   13.1999998,           7.
    941,          13.,           7.
    942,   12.8000002,           7.
    943,   12.6000004,           7.
    944,   12.3999996,           7.
    945,   12.1999998,           7.
    946,          12.,           7.
    947,   11.8000002,           7.
    948,   11.6000004,           7.
    949,   11.3999996,           7.
    950,   11.1999998,           7.
    951,          11.,           7.
    952,   10.8000002,           7.
    953,   10.6000004,           7.
    954,   10.3999996,           7.
    955,   10.1999998,           7.
    956,          10.,           7.
    957,   9.80000019,           7.
    958,   9.60000038,           7.
    959,   9.39999962,           7.
    960,   9.19999981,           7.
    961,           9.,           7.
    962,   8.80000019,           7.
    963,   8.60000038,           7.
    964,   8.39999962,           7.
    965,   8.19999981,           7.
    966,           8.,           7.
    967,   7.80000019,           7.
    968,    7.5999999,           7.
    969,    7.4000001,           7.
    970,   7.19999981,           7.
    971,           7.,           7.
    972,   6.80000019,           7.
    973,    6.5999999,           7.
    974,    6.4000001,           7.
    975,   6.19999981,           7.
    976,           6.,           7.
    977,   5.80000019,           7.
    978,    5.5999999,           7.
    979,    5.4000001,           7.
    980,   5.19999981,           7.
    981,           5.,           7.
    982,   4.80000019,           7.
    983,    4.5999999,           7.
    984,    4.4000001,           7.
    985,   4.19999981,           7.
    986,           4.,           7.
    987,   3.79999995,           7.
    988,    3.5999999,           7.
    989,    3.4000001,           7.
    990,   3.20000005,           7.
    991,           3.,           7.
    992,   2.79999995,           7.
    993,    2.5999999,           7.
    994,    2.4000001,           7.
    995,   2.20000005,           7.
    996,           2.,           7.
    997,   1.79999995,           7.
    998,   1.60000002,           7.
    999,   1.39999998,           7.
   1000,   1.20000005,           7.
   1001,           1.,           7.
   1002,  0.800000012,           7.
   1003,  0.600000024,           7.
   1004,  0.400000006,           7.
   1005,  0.200000003,           7.
   1006, -0.200000003,          3.5
   1007, -0.400000006,          3.5
   1008, -0.600000024,          3.5
   1009, -0.800000012,          3.5
   1010,          -1.,          3.5
   1011,  -1.20000005,          3.5
   1012,  -1.39999998,          3.5
   1013,  -1.60000002,          3.5
   1014,  -1.79999995,          3.5
   1015,          -2.,          3.5
   1016,  -2.20000005,          3.5
   1017,   -2.4000001,          3.5
   1018,   -2.5999999,          3.5
   1019,  -2.79999995,          3.5
   1020,          -3.,          3.5
   1021,  -3.20000005,          3.5
   1022,   -3.4000001,          3.5
   1023,   -3.5999999,          3.5
   1024,  -3.79999995,          3.5
   1025,          -4.,          3.5
   1026,  -4.19999981,          3.5
   1027,   -4.4000001,          3.5
   1028,   -4.5999999,          3.5
   1029,  -4.80000019,          3.5
   1030,          -5.,          3.5
   1031,  -5.19999981,          3.5
   1032,   -5.4000001,          3.5
   1033,   -5.5999999,          3.5
   1034,  -5.80000019,          3.5
   1035,          -6.,          3.5
   1036,  -6.19999981,          3.5
   1037,   -6.4000001,          3.5
   1038,   -6.5999999,          3.5
   1039,  -6.80000019,          3.5
   1040,          -7.,          3.5
   1041,  -7.19999981,          3.5
   1042,   -7.4000001,          3.5
   1043,   -7.5999999,          3.5
   1044,  -7.80000019,          3.5
   1045,          -8.,          3.5
   1046,  -8.19999981,          3.5
   1047,  -8.39999962,          3.5
   1048,  -8.60000038,          3.5
   1049,  -8.80000019,          3.5
   1050,          -9.,          3.5
   1051,  -9.19999981,          3.5
   1052,  -9.39999962,          3.5
   1053,  -9.60000038,          3.5
   1054,  -9.80000019,          3.5
   1055,         -10.,          3.5
   1056,  -10.1999998,          3.5
   1057,  -10.3999996,          3.5
   1058,  -10.6000004,          3.5
   1059,  -10.8000002,          3.5
   1060,         -11.,          3.5
   1061,  -11.1999998,          3.5
   1062,  -11.3999996,          3.5
   1063,  -11.6000004,          3.5
   1064,  -11.8000002,          3.5
   1065,         -12.,          3.5
   1066,  -12.1999998,          3.5
   1067,  -12.3999996,          3.5
   1068,  -12.6000004,          3.5
   1069,  -12.8000002,          3.5
   1070,         -13.,          3.5
   1071,  -13.1999998,          3.5
   1072,  -13.3999996,          3.5
   1073,  -13.6000004,          3.5
   1074,  -13.8000002,          3.5
   1075,         -14.,          3.5
   1076,  -14.1999998,          3.5
   1077,  -14.3999996,          3.5
   1078,  -14.6000004,          3.5
   1079,  -14.8000002,          3.5
   1080,         -15.,          3.5
   1081,  -15.1999998,          3.5
   1082,  -15.3999996,          3.5
   1083,  -15.6000004,          3.5
   1084,  -15.8000002,          3.5
   1085,         -16.,          3.5
   1086,  -16.2000008,          3.5
   1087,  -16.3999996,          3.5
   1088,  -16.6000004,          3.5
   1089,  -16.7999992,          3.5
   1090,         -17.,          3.5
   1091,  -17.2000008,          3.5
   1092,  -17.3999996,          3.5
   1093,  -17.6000004,          3.5
   1094,  -17.7999992,          3.5
   1095,         -18.,          3.5
   1096,  -18.2000008,          3.5
   1097,  -18.3999996,          3.5
   1098,  -18.6000004,          3.5
   1099,  -18.7999992,          3.5
   1100,         -19.,          3.5
   1101,  -19.2000008,          3.5
   1102,  -19.3999996,          3.5
   1103,  -19.6000004,          3.5
   1104,  -19.7999992,          3.5
   1105,         -20.,          3.5
   1106,  -20.2000008,          3.5
   1107,  -20.3999996,          3.5
   1108,  -20.6000004,          3.5
   1109,  -20.7999992,          3.5
   1110,         -21.,          3.5
   1111,  -21.2000008,          3.5
   1112,  -21.3999996,          3.5
   1113,  -21.6000004,          3.5
   1114,  -21.7999992,          3.5
   1115,         -22.,          3.5
   1116,  -22.2000008,          3.5
   1117,  -22.3999996,          3.5
   1118,  -22.6000004,          3.5
   1119,  -22.7999992,          3.5
   1120,         -23.,          3.5
   1121,  -23.2000008,          3.5
   1122,  -23.3999996,          3.5
   1123,  -23.6000004,          3.5
   1124,  -23.7999992,          3.5
   1125,         -24.,          3.5
   1126,  -24.2000008,          3.5
   1127,  -24.3999996,          3.5
   1128,  -24.6000004,          3.5
   1129,  -24.7999992,          3.5
   1130,         -25.,          3.5
   1131,  -25.2000008,          3.5
   1132,  -25.3999996,          3.5
   1133,  -25.6000004,          3.5
   1134,  -25.7999992,          3.5
   1135,         -26.,          3.5
   1136,  -26.2000008,          3.5
   1137,  -26.3999996,          3.5
   1138,  -26.6000004,          3.5
   1139,  -26.7999992,          3.5
   1140,         -27.,          3.5
   1141,  -27.2000008,          3.5
   1142,  -27.3999996,          3.5
   1143,  -27.6000004,          3.5
   1144,  -27.7999992,          3.5
   1145,         -28.,          3.5
   1146,  -28.2000008,          3.5
   1147,  -28.3999996,          3.5
   1148,  -28.6000004,          3.5
   1149,  -28.7999992,          3.5
   1150,         -29.,          3.5
   1151,  -29.2000008,          3.5
   1152,  -29.3999996,          3.5
   1153,  -29.6000004,          3.5
   1154,  -29.7999992,          3.5
   1155,         -30.,          3.5
   1156,  -30.2000008,          3.5
   1157,  -30.3999996,          3.5
   1158,  -30.6000004,          3.5
   1159,  -30.7999992,          3.5
   1160,         -31.,          3.5
   1161,  -31.2000008,          3.5
   1162,  -31.3999996,          3.5
   1163,  -31.6000004,          3.5
   1164,  -31.7999992,          3.5
   1165,         -32.,          3.5
   1166,  -32.2000008,          3.5
   1167,  -32.4000015,          3.5
   1168,  -32.5999985,          3.5
   1169,  -32.7999992,          3.5
   1170,         -33.,          3.5
   1171,  -33.2000008,          3.5
   1172,  -33.4000015,          3.5
   1173,  -33.5999985,          3.5
   1174,  -33.7999992,          3.5
   1175,         -34.,          3.5
   1176,  -34.2000008,          3.5
   1177,  -34.4000015,          3.5
   1178,  -34.5999985,          3.5
   1179,  -34.7999992,          3.5
   1180,         -35.,          3.5
   1181,  -35.2000008,          3.5
   1182,  -35.4000015,          3.5
   1183,  -35.5999985,          3.5
   1184,  -35.7999992,          3.5
   1185,         -36.,          3.5
   1186,  -36.2000008,          3.5
   1187,  -36.4000015,          3.5
   1188,  -36.5999985,          3.5
   1189,  -36.7999992,          3.5
   1190,         -37.,          3.5
   1191,  -37.2000008,          3.5
   1192,  -37.4000015,          3.5
   1193,  -37.5999985,          3.5
   1194,  -37.7999992,          3.5
   1195,         -38.,          3.5
   1196,  -38.2000008,          3.5
   1197,  -38.4000015,          3.5
   1198,  -38.5999985,          3.5
   1199,  -38.7999992,          3.5
   1200,         -39.,          3.5
   1201,  -39.2000008,          3.5
   1202,  -39.4000015,          3.5
   1203,  -39.5999985,          3.5
   1204,  -39.7999992,          3.5
   1205,         -40.,          3.5
   1206,  -40.2000008,          3.5
   1207,  -40.4000015,          3.5
   1208,  -40.5999985,          3.5
   1209,  -40.7999992,          3.5
   1210,         -41.,          3.5
   1211,  -41.2000008,          3.5
   1212,  -41.4000015,          3.5
   1213,  -41.5999985,          3.5
   1214,  -41.7999992,          3.5
   1215,         -42.,          3.5
   1216,  -42.2000008,          3.5
   1217,  -42.4000015,          3.5
   1218,  -42.5999985,          3.5
   1219,  -42.7999992,          3.5
   1220,         -43.,          3.5
   1221,  -43.2000008,          3.5
   1222,  -43.4000015,          3.5
   1223,  -43.5999985,          3.5
   1224,  -43.7999992,          3.5
   1225,         -44.,          3.5
   1226,  -44.2000008,          3.5
   1227,  -44.4000015,          3.5
   1228,  -44.5999985,          3.5
   1229,  -44.7999992,          3.5
   1230,         -45.,          3.5
   1231,  -45.2000008,          3.5
   1232,  -45.4000015,          3.5
   1233,  -45.5999985,          3.5
   1234,  -45.7999992,          3.5
   1235,         -46.,          3.5
   1236,  -46.2000008,          3.5
   1237,  -46.4000015,          3.5
   1238,  -46.5999985,          3.5
   1239,  -46.7999992,          3.5
   1240,         -47.,          3.5
   1241,  -47.2000008,          3.5
   1242,  -47.4000015,          3.5
   1243,  -47.5999985,          3.5
   1244,  -47.7999992,          3.5
   1245,         -48.,          3.5
   1246,  -48.2000008,          3.5
   1247,  -48.4000015,          3.5
   1248,  -48.5999985,          3.5
   1249,  -48.7999992,          3.5
   1250,         -49.,          3.5
   1251,  -49.2000008,          3.5
   1252,  -49.4000015,          3.5
   1253,  -49.5999985,          3.5
   1254,  -49.7999992,          3.5
   1255,  0.200000003,          3.5
   1256,  0.400000006,          3.5
   1257,  0.600000024,          3.5
   1258,  0.800000012,          3.5
   1259,           1.,          3.5
   1260,   1.20000005,          3.5
   1261,   1.39999998,          3.5
   1262,   1.60000002,          3.5
   1263,   1.79999995,          3.5
   1264,           2.,          3.5
   1265,   2.20000005,          3.5
   1266,    2.4000001,          3.5
   1267,    2.5999999,          3.5
   1268,   2.79999995,          3.5
   1269,           3.,          3.5
   1270,   3.20000005,          3.5
   1271,    3.4000001,          3.5
   1272,    3.5999999,          3.5
   1273,   3.79999995,          3.5
   1274,           4.,          3.5
   1275,   4.19999981,          3.5
   1276,    4.4000001,          3.5
   1277,    4.5999999,          3.5
   1278,   4.80000019,          3.5
   1279,           5.,          3.5
   1280,   5.19999981,          3.5
   1281,    5.4000001,          3.5
   1282,    5.5999999,          3.5
   1283,   5.80000019,          3.5
   1284,           6.,          3.5
   1285,   6.19999981,          3.5
   1286,    6.4000001,          3.5
   1287,    6.5999999,          3.5
   1288,   6.80000019,          3.5
   1289,           7.,          3.5
   1290,   7.19999981,          3.5
   1291,    7.4000001,          3.5
   1292,    7.5999999,          3.5
   1293,   7.80000019,          3.5
   1294,           8.,          3.5
   1295,   8.19999981,          3.5
   1296,   8.39999962,          3.5
   1297,   8.60000038,          3.5
   1298,   8.80000019,          3.5
   1299,           9.,          3.5
   1300,   9.19999981,          3.5
   1301,   9.39999962,          3.5
   1302,   9.60000038,          3.5
   1303,   9.80000019,          3.5
   1304,          10.,          3.5
   1305,   10.1999998,          3.5
   1306,   10.3999996,          3.5
   1307,   10.6000004,          3.5
   1308,   10.8000002,          3.5
   1309,          11.,          3.5
   1310,   11.1999998,          3.5
   1311,   11.3999996,          3.5
   1312,   11.6000004,          3.5
   1313,   11.8000002,          3.5
   1314,          12.,          3.5
   1315,   12.1999998,          3.5
   1316,   12.3999996,          3.5
   1317,   12.6000004,          3.5
   1318,   12.8000002,          3.5
   1319,          13.,          3.5
   1320,   13.1999998,          3.5
   1321,   13.3999996,          3.5
   1322,   13.6000004,          3.5
   1323,   13.8000002,          3.5
   1324,          14.,          3.5
   1325,   14.1999998,          3.5
   1326,   14.3999996,          3.5
   1327,   14.6000004,          3.5
   1328,   14.8000002,          3.5
   1329,          15.,          3.5
   1330,   15.1999998,          3.5
   1331,   15.3999996,          3.5
   1332,   15.6000004,          3.5
   1333,   15.8000002,          3.5
   1334,          16.,          3.5
   1335,   16.2000008,          3.5
   1336,   16.3999996,          3.5
   1337,   16.6000004,          3.5
   1338,   16.7999992,          3.5
   1339,          17.,          3.5
   1340,   17.2000008,          3.5
   1341,   17.3999996,          3.5
   1342,   17.6000004,          3.5
   1343,   17.7999992,          3.5
   1344,          18.,          3.5
   1345,   18.2000008,          3.5
   1346,   18.3999996,          3.5
   1347,   18.6000004,          3.5
   1348,   18.7999992,          3.5
   1349,          19.,          3.5
   1350,   19.2000008,          3.5
   1351,   19.3999996,          3.5
   1352,   19.6000004,          3.5
   1353,   19.7999992,          3.5
   1354,          20.,          3.5
   1355,   20.2000008,          3.5
   1356,   20.3999996,          3.5
   1357,   20.6000004,          3.5
   1358,   20.7999992,          3.5
   1359,          21.,          3.5
   1360,   21.2000008,          3.5
   1361,   21.3999996,          3.5
   1362,   21.6000004,          3.5
   1363,   21.7999992,          3.5
   1364,          22.,          3.5
   1365,   22.2000008,          3.5
   1366,   22.3999996,          3.5
   1367,   22.6000004,          3.5
   1368,   22.7999992,          3.5
   1369,          23.,          3.5
   1370,   23.2000008,          3.5
   1371,   23.3999996,          3.5
   1372,   23.6000004,          3.5
   1373,   23.7999992,          3.5
   1374,          24.,          3.5
   1375,   24.2000008,          3.5
   1376,   24.3999996,          3.5
   1377,   24.6000004,          3.5
   1378,   24.7999992,          3.5
   1379,          25.,          3.5
   1380,   25.2000008,          3.5
   1381,   25.3999996,          3.5
   1382,   25.6000004,          3.5
   1383,   25.7999992,          3.5
   1384,          26.,          3.5
   1385,   26.2000008,          3.5
   1386,   26.3999996,          3.5
   1387,   26.6000004,          3.5
   1388,   26.7999992,          3.5
   1389,          27.,          3.5
   1390,   27.2000008,          3.5
   1391,   27.3999996,          3.5
   1392,   27.6000004,          3.5
   1393,   27.7999992,          3.5
   1394,          28.,          3.5
   1395,   28.2000008,          3.5
   1396,   28.3999996,          3.5
   1397,   28.6000004,          3.5
   1398,   28.7999992,          3.5
   1399,          29.,          3.5
   1400,   29.2000008,          3.5
   1401,   29.3999996,          3.5
   1402,   29.6000004,          3.5
   1403,   29.7999992,          3.5
   1404,          30.,          3.5
   1405,   30.2000008,          3.5
   1406,   30.3999996,          3.5
   1407,   30.6000004,          3.5
   1408,   30.7999992,          3.5
   1409,          31.,          3.5
   1410,   31.2000008,          3.5
   1411,   31.3999996,          3.5
   1412,   31.6000004,          3.5
   1413,   31.7999992,          3.5
   1414,          32.,          3.5
   1415,   32.2000008,          3.5
   1416,   32.4000015,          3.5
   1417,   32.5999985,          3.5
   1418,   32.7999992,          3.5
   1419,          33.,          3.5
   1420,   33.2000008,          3.5
   1421,   33.4000015,          3.5
   1422,   33.5999985,          3.5
   1423,   33.7999992,          3.5
   1424,          34.,          3.5
   1425,   34.2000008,          3.5
   1426,   34.4000015,          3.5
   1427,   34.5999985,          3.5
   1428,   34.7999992,          3.5
   1429,          35.,          3.5
   1430,   35.2000008,          3.5
   1431,   35.4000015,          3.5
   1432,   35.5999985,          3.5
   1433,   35.7999992,          3.5
   1434,          36.,          3.5
   1435,   36.2000008,          3.5
   1436,   36.4000015,          3.5
   1437,   36.5999985,          3.5
   1438,   36.7999992,          3.5
   1439,          37.,          3.5
   1440,   37.2000008,          3.5
   1441,   37.4000015,          3.5
   1442,   37.5999985,          3.5
   1443,   37.7999992,          3.5
   1444,          38.,          3.5
   1445,   38.2000008,          3.5
   1446,   38.4000015,          3.5
   1447,   38.5999985,          3.5
   1448,   38.7999992,          3.5
   1449,          39.,          3.5
   1450,   39.2000008,          3.5
   1451,   39.4000015,          3.5
   1452,   39.5999985,          3.5
   1453,   39.7999992,          3.5
   1454,          40.,          3.5
   1455,   40.2000008,          3.5
   1456,   40.4000015,          3.5
   1457,   40.5999985,          3.5
   1458,   40.7999992,          3.5
   1459,          41.,          3.5
   1460,   41.2000008,          3.5
   1461,   41.4000015,          3.5
   1462,   41.5999985,          3.5
   1463,   41.7999992,          3.5
   1464,          42.,          3.5
   1465,   42.2000008,          3.5
   1466,   42.4000015,          3.5
   1467,   42.5999985,          3.5
   1468,   42.7999992,          3.5
   1469,          43.,          3.5
   1470,   43.2000008,          3.5
   1471,   43.4000015,          3.5
   1472,   43.5999985,          3.5
   1473,   43.7999992,          3.5
   1474,          44.,          3.5
   1475,   44.2000008,          3.5
   1476,   44.4000015,          3.5
   1477,   44.5999985,          3.5
   1478,   44.7999992,          3.5
   1479,          45.,          3.5
   1480,   45.2000008,          3.5
   1481,   45.4000015,          3.5
   1482,   45.5999985,          3.5
   1483,   45.7999992,          3.5
   1484,          46.,          3.5
   1485,   46.2000008,          3.5
   1486,   46.4000015,          3.5
   1487,   46.5999985,          3.5
   1488,   46.7999992,          3.5
   1489,          47.,          3.5
   1490,   47.2000008,          3.5
   1491,   47.4000015,          3.5
   1492,   47.5999985,          3.5
   1493,   47.7999992,          3.5
   1494,          48.,          3.5
   1495,   48.2000008,          3.5
   1496,   48.4000015,          3.5
   1497,   48.5999985,          3.5
   1498,   48.7999992,          3.5
   1499,          49.,          3.5
   1500,   49.2000008,          3.5
   1501,   49.4000015,          3.5
   1502,   49.5999985,          3.5
   1503,   49.7999992,          3.5
*Element, type=CPE4R
  1,    1,    7, 1006,  506
  2,    7,    2,    8, 1006
  3,  506, 1006, 1007,  505
  4, 1006,    8,    9, 1007
  5,  505, 1007, 1008,  504
  6, 1007,    9,   10, 1008
  7,  504, 1008, 1009,  503
  8, 1008,   10,   11, 1009
  9,  503, 1009, 1010,  502
 10, 1009,   11,   12, 1010
 11,  502, 1010, 1011,  501
 12, 1010,   12,   13, 1011
 13,  501, 1011, 1012,  500
 14, 1011,   13,   14, 1012
 15,  500, 1012, 1013,  499
 16, 1012,   14,   15, 1013
 17,  499, 1013, 1014,  498
 18, 1013,   15,   16, 1014
 19,  498, 1014, 1015,  497
 20, 1014,   16,   17, 1015
 21,  497, 1015, 1016,  496
 22, 1015,   17,   18, 1016
 23,  496, 1016, 1017,  495
 24, 1016,   18,   19, 1017
 25,  495, 1017, 1018,  494
 26, 1017,   19,   20, 1018
 27,  494, 1018, 1019,  493
 28, 1018,   20,   21, 1019
 29,  493, 1019, 1020,  492
 30, 1019,   21,   22, 1020
 31,  492, 1020, 1021,  491
 32, 1020,   22,   23, 1021
 33,  491, 1021, 1022,  490
 34, 1021,   23,   24, 1022
 35,  490, 1022, 1023,  489
 36, 1022,   24,   25, 1023
 37,  489, 1023, 1024,  488
 38, 1023,   25,   26, 1024
 39,  488, 1024, 1025,  487
 40, 1024,   26,   27, 1025
 41,  487, 1025, 1026,  486
 42, 1025,   27,   28, 1026
 43,  486, 1026, 1027,  485
 44, 1026,   28,   29, 1027
 45,  485, 1027, 1028,  484
 46, 1027,   29,   30, 1028
 47,  484, 1028, 1029,  483
 48, 1028,   30,   31, 1029
 49,  483, 1029, 1030,  482
 50, 1029,   31,   32, 1030
 51,  482, 1030, 1031,  481
 52, 1030,   32,   33, 1031
 53,  481, 1031, 1032,  480
 54, 1031,   33,   34, 1032
 55,  480, 1032, 1033,  479
 56, 1032,   34,   35, 1033
 57,  479, 1033, 1034,  478
 58, 1033,   35,   36, 1034
 59,  478, 1034, 1035,  477
 60, 1034,   36,   37, 1035
 61,  477, 1035, 1036,  476
 62, 1035,   37,   38, 1036
 63,  476, 1036, 1037,  475
 64, 1036,   38,   39, 1037
 65,  475, 1037, 1038,  474
 66, 1037,   39,   40, 1038
 67,  474, 1038, 1039,  473
 68, 1038,   40,   41, 1039
 69,  473, 1039, 1040,  472
 70, 1039,   41,   42, 1040
 71,  472, 1040, 1041,  471
 72, 1040,   42,   43, 1041
 73,  471, 1041, 1042,  470
 74, 1041,   43,   44, 1042
 75,  470, 1042, 1043,  469
 76, 1042,   44,   45, 1043
 77,  469, 1043, 1044,  468
 78, 1043,   45,   46, 1044
 79,  468, 1044, 1045,  467
 80, 1044,   46,   47, 1045
 81,  467, 1045, 1046,  466
 82, 1045,   47,   48, 1046
 83,  466, 1046, 1047,  465
 84, 1046,   48,   49, 1047
 85,  465, 1047, 1048,  464
 86, 1047,   49,   50, 1048
 87,  464, 1048, 1049,  463
 88, 1048,   50,   51, 1049
 89,  463, 1049, 1050,  462
 90, 1049,   51,   52, 1050
 91,  462, 1050, 1051,  461
 92, 1050,   52,   53, 1051
 93,  461, 1051, 1052,  460
 94, 1051,   53,   54, 1052
 95,  460, 1052, 1053,  459
 96, 1052,   54,   55, 1053
 97,  459, 1053, 1054,  458
 98, 1053,   55,   56, 1054
 99,  458, 1054, 1055,  457
100, 1054,   56,   57, 1055
101,  457, 1055, 1056,  456
102, 1055,   57,   58, 1056
103,  456, 1056, 1057,  455
104, 1056,   58,   59, 1057
105,  455, 1057, 1058,  454
106, 1057,   59,   60, 1058
107,  454, 1058, 1059,  453
108, 1058,   60,   61, 1059
109,  453, 1059, 1060,  452
110, 1059,   61,   62, 1060
111,  452, 1060, 1061,  451
112, 1060,   62,   63, 1061
113,  451, 1061, 1062,  450
114, 1061,   63,   64, 1062
115,  450, 1062, 1063,  449
116, 1062,   64,   65, 1063
117,  449, 1063, 1064,  448
118, 1063,   65,   66, 1064
119,  448, 1064, 1065,  447
120, 1064,   66,   67, 1065
121,  447, 1065, 1066,  446
122, 1065,   67,   68, 1066
123,  446, 1066, 1067,  445
124, 1066,   68,   69, 1067
125,  445, 1067, 1068,  444
126, 1067,   69,   70, 1068
127,  444, 1068, 1069,  443
128, 1068,   70,   71, 1069
129,  443, 1069, 1070,  442
130, 1069,   71,   72, 1070
131,  442, 1070, 1071,  441
132, 1070,   72,   73, 1071
133,  441, 1071, 1072,  440
134, 1071,   73,   74, 1072
135,  440, 1072, 1073,  439
136, 1072,   74,   75, 1073
137,  439, 1073, 1074,  438
138, 1073,   75,   76, 1074
139,  438, 1074, 1075,  437
140, 1074,   76,   77, 1075
141,  437, 1075, 1076,  436
142, 1075,   77,   78, 1076
143,  436, 1076, 1077,  435
144, 1076,   78,   79, 1077
145,  435, 1077, 1078,  434
146, 1077,   79,   80, 1078
147,  434, 1078, 1079,  433
148, 1078,   80,   81, 1079
149,  433, 1079, 1080,  432
150, 1079,   81,   82, 1080
151,  432, 1080, 1081,  431
152, 1080,   82,   83, 1081
153,  431, 1081, 1082,  430
154, 1081,   83,   84, 1082
155,  430, 1082, 1083,  429
156, 1082,   84,   85, 1083
157,  429, 1083, 1084,  428
158, 1083,   85,   86, 1084
159,  428, 1084, 1085,  427
160, 1084,   86,   87, 1085
161,  427, 1085, 1086,  426
162, 1085,   87,   88, 1086
163,  426, 1086, 1087,  425
164, 1086,   88,   89, 1087
165,  425, 1087, 1088,  424
166, 1087,   89,   90, 1088
167,  424, 1088, 1089,  423
168, 1088,   90,   91, 1089
169,  423, 1089, 1090,  422
170, 1089,   91,   92, 1090
171,  422, 1090, 1091,  421
172, 1090,   92,   93, 1091
173,  421, 1091, 1092,  420
174, 1091,   93,   94, 1092
175,  420, 1092, 1093,  419
176, 1092,   94,   95, 1093
177,  419, 1093, 1094,  418
178, 1093,   95,   96, 1094
179,  418, 1094, 1095,  417
180, 1094,   96,   97, 1095
181,  417, 1095, 1096,  416
182, 1095,   97,   98, 1096
183,  416, 1096, 1097,  415
184, 1096,   98,   99, 1097
185,  415, 1097, 1098,  414
186, 1097,   99,  100, 1098
187,  414, 1098, 1099,  413
188, 1098,  100,  101, 1099
189,  413, 1099, 1100,  412
190, 1099,  101,  102, 1100
191,  412, 1100, 1101,  411
192, 1100,  102,  103, 1101
193,  411, 1101, 1102,  410
194, 1101,  103,  104, 1102
195,  410, 1102, 1103,  409
196, 1102,  104,  105, 1103
197,  409, 1103, 1104,  408
198, 1103,  105,  106, 1104
199,  408, 1104, 1105,  407
200, 1104,  106,  107, 1105
201,  407, 1105, 1106,  406
202, 1105,  107,  108, 1106
203,  406, 1106, 1107,  405
204, 1106,  108,  109, 1107
205,  405, 1107, 1108,  404
206, 1107,  109,  110, 1108
207,  404, 1108, 1109,  403
208, 1108,  110,  111, 1109
209,  403, 1109, 1110,  402
210, 1109,  111,  112, 1110
211,  402, 1110, 1111,  401
212, 1110,  112,  113, 1111
213,  401, 1111, 1112,  400
214, 1111,  113,  114, 1112
215,  400, 1112, 1113,  399
216, 1112,  114,  115, 1113
217,  399, 1113, 1114,  398
218, 1113,  115,  116, 1114
219,  398, 1114, 1115,  397
220, 1114,  116,  117, 1115
221,  397, 1115, 1116,  396
222, 1115,  117,  118, 1116
223,  396, 1116, 1117,  395
224, 1116,  118,  119, 1117
225,  395, 1117, 1118,  394
226, 1117,  119,  120, 1118
227,  394, 1118, 1119,  393
228, 1118,  120,  121, 1119
229,  393, 1119, 1120,  392
230, 1119,  121,  122, 1120
231,  392, 1120, 1121,  391
232, 1120,  122,  123, 1121
233,  391, 1121, 1122,  390
234, 1121,  123,  124, 1122
235,  390, 1122, 1123,  389
236, 1122,  124,  125, 1123
237,  389, 1123, 1124,  388
238, 1123,  125,  126, 1124
239,  388, 1124, 1125,  387
240, 1124,  126,  127, 1125
241,  387, 1125, 1126,  386
242, 1125,  127,  128, 1126
243,  386, 1126, 1127,  385
244, 1126,  128,  129, 1127
245,  385, 1127, 1128,  384
246, 1127,  129,  130, 1128
247,  384, 1128, 1129,  383
248, 1128,  130,  131, 1129
249,  383, 1129, 1130,  382
250, 1129,  131,  132, 1130
251,  382, 1130, 1131,  381
252, 1130,  132,  133, 1131
253,  381, 1131, 1132,  380
254, 1131,  133,  134, 1132
255,  380, 1132, 1133,  379
256, 1132,  134,  135, 1133
257,  379, 1133, 1134,  378
258, 1133,  135,  136, 1134
259,  378, 1134, 1135,  377
260, 1134,  136,  137, 1135
261,  377, 1135, 1136,  376
262, 1135,  137,  138, 1136
263,  376, 1136, 1137,  375
264, 1136,  138,  139, 1137
265,  375, 1137, 1138,  374
266, 1137,  139,  140, 1138
267,  374, 1138, 1139,  373
268, 1138,  140,  141, 1139
269,  373, 1139, 1140,  372
270, 1139,  141,  142, 1140
271,  372, 1140, 1141,  371
272, 1140,  142,  143, 1141
273,  371, 1141, 1142,  370
274, 1141,  143,  144, 1142
275,  370, 1142, 1143,  369
276, 1142,  144,  145, 1143
277,  369, 1143, 1144,  368
278, 1143,  145,  146, 1144
279,  368, 1144, 1145,  367
280, 1144,  146,  147, 1145
281,  367, 1145, 1146,  366
282, 1145,  147,  148, 1146
283,  366, 1146, 1147,  365
284, 1146,  148,  149, 1147
285,  365, 1147, 1148,  364
286, 1147,  149,  150, 1148
287,  364, 1148, 1149,  363
288, 1148,  150,  151, 1149
289,  363, 1149, 1150,  362
290, 1149,  151,  152, 1150
291,  362, 1150, 1151,  361
292, 1150,  152,  153, 1151
293,  361, 1151, 1152,  360
294, 1151,  153,  154, 1152
295,  360, 1152, 1153,  359
296, 1152,  154,  155, 1153
297,  359, 1153, 1154,  358
298, 1153,  155,  156, 1154
299,  358, 1154, 1155,  357
300, 1154,  156,  157, 1155
301,  357, 1155, 1156,  356
302, 1155,  157,  158, 1156
303,  356, 1156, 1157,  355
304, 1156,  158,  159, 1157
305,  355, 1157, 1158,  354
306, 1157,  159,  160, 1158
307,  354, 1158, 1159,  353
308, 1158,  160,  161, 1159
309,  353, 1159, 1160,  352
310, 1159,  161,  162, 1160
311,  352, 1160, 1161,  351
312, 1160,  162,  163, 1161
313,  351, 1161, 1162,  350
314, 1161,  163,  164, 1162
315,  350, 1162, 1163,  349
316, 1162,  164,  165, 1163
317,  349, 1163, 1164,  348
318, 1163,  165,  166, 1164
319,  348, 1164, 1165,  347
320, 1164,  166,  167, 1165
321,  347, 1165, 1166,  346
322, 1165,  167,  168, 1166
323,  346, 1166, 1167,  345
324, 1166,  168,  169, 1167
325,  345, 1167, 1168,  344
326, 1167,  169,  170, 1168
327,  344, 1168, 1169,  343
328, 1168,  170,  171, 1169
329,  343, 1169, 1170,  342
330, 1169,  171,  172, 1170
331,  342, 1170, 1171,  341
332, 1170,  172,  173, 1171
333,  341, 1171, 1172,  340
334, 1171,  173,  174, 1172
335,  340, 1172, 1173,  339
336, 1172,  174,  175, 1173
337,  339, 1173, 1174,  338
338, 1173,  175,  176, 1174
339,  338, 1174, 1175,  337
340, 1174,  176,  177, 1175
341,  337, 1175, 1176,  336
342, 1175,  177,  178, 1176
343,  336, 1176, 1177,  335
344, 1176,  178,  179, 1177
345,  335, 1177, 1178,  334
346, 1177,  179,  180, 1178
347,  334, 1178, 1179,  333
348, 1178,  180,  181, 1179
349,  333, 1179, 1180,  332
350, 1179,  181,  182, 1180
351,  332, 1180, 1181,  331
352, 1180,  182,  183, 1181
353,  331, 1181, 1182,  330
354, 1181,  183,  184, 1182
355,  330, 1182, 1183,  329
356, 1182,  184,  185, 1183
357,  329, 1183, 1184,  328
358, 1183,  185,  186, 1184
359,  328, 1184, 1185,  327
360, 1184,  186,  187, 1185
361,  327, 1185, 1186,  326
362, 1185,  187,  188, 1186
363,  326, 1186, 1187,  325
364, 1186,  188,  189, 1187
365,  325, 1187, 1188,  324
366, 1187,  189,  190, 1188
367,  324, 1188, 1189,  323
368, 1188,  190,  191, 1189
369,  323, 1189, 1190,  322
370, 1189,  191,  192, 1190
371,  322, 1190, 1191,  321
372, 1190,  192,  193, 1191
373,  321, 1191, 1192,  320
374, 1191,  193,  194, 1192
375,  320, 1192, 1193,  319
376, 1192,  194,  195, 1193
377,  319, 1193, 1194,  318
378, 1193,  195,  196, 1194
379,  318, 1194, 1195,  317
380, 1194,  196,  197, 1195
381,  317, 1195, 1196,  316
382, 1195,  197,  198, 1196
383,  316, 1196, 1197,  315
384, 1196,  198,  199, 1197
385,  315, 1197, 1198,  314
386, 1197,  199,  200, 1198
387,  314, 1198, 1199,  313
388, 1198,  200,  201, 1199
389,  313, 1199, 1200,  312
390, 1199,  201,  202, 1200
391,  312, 1200, 1201,  311
392, 1200,  202,  203, 1201
393,  311, 1201, 1202,  310
394, 1201,  203,  204, 1202
395,  310, 1202, 1203,  309
396, 1202,  204,  205, 1203
397,  309, 1203, 1204,  308
398, 1203,  205,  206, 1204
399,  308, 1204, 1205,  307
400, 1204,  206,  207, 1205
401,  307, 1205, 1206,  306
402, 1205,  207,  208, 1206
403,  306, 1206, 1207,  305
404, 1206,  208,  209, 1207
405,  305, 1207, 1208,  304
406, 1207,  209,  210, 1208
407,  304, 1208, 1209,  303
408, 1208,  210,  211, 1209
409,  303, 1209, 1210,  302
410, 1209,  211,  212, 1210
411,  302, 1210, 1211,  301
412, 1210,  212,  213, 1211
413,  301, 1211, 1212,  300
414, 1211,  213,  214, 1212
415,  300, 1212, 1213,  299
416, 1212,  214,  215, 1213
417,  299, 1213, 1214,  298
418, 1213,  215,  216, 1214
419,  298, 1214, 1215,  297
420, 1214,  216,  217, 1215
421,  297, 1215, 1216,  296
422, 1215,  217,  218, 1216
423,  296, 1216, 1217,  295
424, 1216,  218,  219, 1217
425,  295, 1217, 1218,  294
426, 1217,  219,  220, 1218
427,  294, 1218, 1219,  293
428, 1218,  220,  221, 1219
429,  293, 1219, 1220,  292
430, 1219,  221,  222, 1220
431,  292, 1220, 1221,  291
432, 1220,  222,  223, 1221
433,  291, 1221, 1222,  290
434, 1221,  223,  224, 1222
435,  290, 1222, 1223,  289
436, 1222,  224,  225, 1223
437,  289, 1223, 1224,  288
438, 1223,  225,  226, 1224
439,  288, 1224, 1225,  287
440, 1224,  226,  227, 1225
441,  287, 1225, 1226,  286
442, 1225,  227,  228, 1226
443,  286, 1226, 1227,  285
444, 1226,  228,  229, 1227
445,  285, 1227, 1228,  284
446, 1227,  229,  230, 1228
447,  284, 1228, 1229,  283
448, 1228,  230,  231, 1229
449,  283, 1229, 1230,  282
450, 1229,  231,  232, 1230
451,  282, 1230, 1231,  281
452, 1230,  232,  233, 1231
453,  281, 1231, 1232,  280
454, 1231,  233,  234, 1232
455,  280, 1232, 1233,  279
456, 1232,  234,  235, 1233
457,  279, 1233, 1234,  278
458, 1233,  235,  236, 1234
459,  278, 1234, 1235,  277
460, 1234,  236,  237, 1235
461,  277, 1235, 1236,  276
462, 1235,  237,  238, 1236
463,  276, 1236, 1237,  275
464, 1236,  238,  239, 1237
465,  275, 1237, 1238,  274
466, 1237,  239,  240, 1238
467,  274, 1238, 1239,  273
468, 1238,  240,  241, 1239
469,  273, 1239, 1240,  272
470, 1239,  241,  242, 1240
471,  272, 1240, 1241,  271
472, 1240,  242,  243, 1241
473,  271, 1241, 1242,  270
474, 1241,  243,  244, 1242
475,  270, 1242, 1243,  269
476, 1242,  244,  245, 1243
477,  269, 1243, 1244,  268
478, 1243,  245,  246, 1244
479,  268, 1244, 1245,  267
480, 1244,  246,  247, 1245
481,  267, 1245, 1246,  266
482, 1245,  247,  248, 1246
483,  266, 1246, 1247,  265
484, 1246,  248,  249, 1247
485,  265, 1247, 1248,  264
486, 1247,  249,  250, 1248
487,  264, 1248, 1249,  263
488, 1248,  250,  251, 1249
489,  263, 1249, 1250,  262
490, 1249,  251,  252, 1250
491,  262, 1250, 1251,  261
492, 1250,  252,  253, 1251
493,  261, 1251, 1252,  260
494, 1251,  253,  254, 1252
495,  260, 1252, 1253,  259
496, 1252,  254,  255, 1253
497,  259, 1253, 1254,  258
498, 1253,  255,  256, 1254
499,  258, 1254,  257,    4
500, 1254,  256,    3,  257
 501,    2,    7, 1255, 1005
 502,    7,    1,  507, 1255
 503, 1005, 1255, 1256, 1004
 504, 1255,  507,  508, 1256
 505, 1004, 1256, 1257, 1003
 506, 1256,  508,  509, 1257
 507, 1003, 1257, 1258, 1002
 508, 1257,  509,  510, 1258
 509, 1002, 1258, 1259, 1001
 510, 1258,  510,  511, 1259
 511, 1001, 1259, 1260, 1000
 512, 1259,  511,  512, 1260
 513, 1000, 1260, 1261,  999
 514, 1260,  512,  513, 1261
 515,  999, 1261, 1262,  998
 516, 1261,  513,  514, 1262
 517,  998, 1262, 1263,  997
 518, 1262,  514,  515, 1263
 519,  997, 1263, 1264,  996
 520, 1263,  515,  516, 1264
 521,  996, 1264, 1265,  995
 522, 1264,  516,  517, 1265
 523,  995, 1265, 1266,  994
 524, 1265,  517,  518, 1266
 525,  994, 1266, 1267,  993
 526, 1266,  518,  519, 1267
 527,  993, 1267, 1268,  992
 528, 1267,  519,  520, 1268
 529,  992, 1268, 1269,  991
 530, 1268,  520,  521, 1269
 531,  991, 1269, 1270,  990
 532, 1269,  521,  522, 1270
 533,  990, 1270, 1271,  989
 534, 1270,  522,  523, 1271
 535,  989, 1271, 1272,  988
 536, 1271,  523,  524, 1272
 537,  988, 1272, 1273,  987
 538, 1272,  524,  525, 1273
 539,  987, 1273, 1274,  986
 540, 1273,  525,  526, 1274
 541,  986, 1274, 1275,  985
 542, 1274,  526,  527, 1275
 543,  985, 1275, 1276,  984
 544, 1275,  527,  528, 1276
 545,  984, 1276, 1277,  983
 546, 1276,  528,  529, 1277
 547,  983, 1277, 1278,  982
 548, 1277,  529,  530, 1278
 549,  982, 1278, 1279,  981
 550, 1278,  530,  531, 1279
 551,  981, 1279, 1280,  980
 552, 1279,  531,  532, 1280
 553,  980, 1280, 1281,  979
 554, 1280,  532,  533, 1281
 555,  979, 1281, 1282,  978
 556, 1281,  533,  534, 1282
 557,  978, 1282, 1283,  977
 558, 1282,  534,  535, 1283
 559,  977, 1283, 1284,  976
 560, 1283,  535,  536, 1284
 561,  976, 1284, 1285,  975
 562, 1284,  536,  537, 1285
 563,  975, 1285, 1286,  974
 564, 1285,  537,  538, 1286
 565,  974, 1286, 1287,  973
 566, 1286,  538,  539, 1287
 567,  973, 1287, 1288,  972
 568, 1287,  539,  540, 1288
 569,  972, 1288, 1289,  971
 570, 1288,  540,  541, 1289
 571,  971, 1289, 1290,  970
 572, 1289,  541,  542, 1290
 573,  970, 1290, 1291,  969
 574, 1290,  542,  543, 1291
 575,  969, 1291, 1292,  968
 576, 1291,  543,  544, 1292
 577,  968, 1292, 1293,  967
 578, 1292,  544,  545, 1293
 579,  967, 1293, 1294,  966
 580, 1293,  545,  546, 1294
 581,  966, 1294, 1295,  965
 582, 1294,  546,  547, 1295
 583,  965, 1295, 1296,  964
 584, 1295,  547,  548, 1296
 585,  964, 1296, 1297,  963
 586, 1296,  548,  549, 1297
 587,  963, 1297, 1298,  962
 588, 1297,  549,  550, 1298
 589,  962, 1298, 1299,  961
 590, 1298,  550,  551, 1299
 591,  961, 1299, 1300,  960
 592, 1299,  551,  552, 1300
 593,  960, 1300, 1301,  959
 594, 1300,  552,  553, 1301
 595,  959, 1301, 1302,  958
 596, 1301,  553,  554, 1302
 597,  958, 1302, 1303,  957
 598, 1302,  554,  555, 1303
 599,  957, 1303, 1304,  956
 600, 1303,  555,  556, 1304
 601,  956, 1304, 1305,  955
 602, 1304,  556,  557, 1305
 603,  955, 1305, 1306,  954
 604, 1305,  557,  558, 1306
 605,  954, 1306, 1307,  953
 606, 1306,  558,  559, 1307
 607,  953, 1307, 1308,  952
 608, 1307,  559,  560, 1308
 609,  952, 1308, 1309,  951
 610, 1308,  560,  561, 1309
 611,  951, 1309, 1310,  950
 612, 1309,  561,  562, 1310
 613,  950, 1310, 1311,  949
 614, 1310,  562,  563, 1311
 615,  949, 1311, 1312,  948
 616, 1311,  563,  564, 1312
 617,  948, 1312, 1313,  947
 618, 1312,  564,  565, 1313
 619,  947, 1313, 1314,  946
 620, 1313,  565,  566, 1314
 621,  946, 1314, 1315,  945
 622, 1314,  566,  567, 1315
 623,  945, 1315, 1316,  944
 624, 1315,  567,  568, 1316
 625,  944, 1316, 1317,  943
 626, 1316,  568,  569, 1317
 627,  943, 1317, 1318,  942
 628, 1317,  569,  570, 1318
 629,  942, 1318, 1319,  941
 630, 1318,  570,  571, 1319
 631,  941, 1319, 1320,  940
 632, 1319,  571,  572, 1320
 633,  940, 1320, 1321,  939
 634, 1320,  572,  573, 1321
 635,  939, 1321, 1322,  938
 636, 1321,  573,  574, 1322
 637,  938, 1322, 1323,  937
 638, 1322,  574,  575, 1323
 639,  937, 1323, 1324,  936
 640, 1323,  575,  576, 1324
 641,  936, 1324, 1325,  935
 642, 1324,  576,  577, 1325
 643,  935, 1325, 1326,  934
 644, 1325,  577,  578, 1326
 645,  934, 1326, 1327,  933
 646, 1326,  578,  579, 1327
 647,  933, 1327, 1328,  932
 648, 1327,  579,  580, 1328
 649,  932, 1328, 1329,  931
 650, 1328,  580,  581, 1329
 651,  931, 1329, 1330,  930
 652, 1329,  581,  582, 1330
 653,  930, 1330, 1331,  929
 654, 1330,  582,  583, 1331
 655,  929, 1331, 1332,  928
 656, 1331,  583,  584, 1332
 657,  928, 1332, 1333,  927
 658, 1332,  584,  585, 1333
 659,  927, 1333, 1334,  926
 660, 1333,  585,  586, 1334
 661,  926, 1334, 1335,  925
 662, 1334,  586,  587, 1335
 663,  925, 1335, 1336,  924
 664, 1335,  587,  588, 1336
 665,  924, 1336, 1337,  923
 666, 1336,  588,  589, 1337
 667,  923, 1337, 1338,  922
 668, 1337,  589,  590, 1338
 669,  922, 1338, 1339,  921
 670, 1338,  590,  591, 1339
 671,  921, 1339, 1340,  920
 672, 1339,  591,  592, 1340
 673,  920, 1340, 1341,  919
 674, 1340,  592,  593, 1341
 675,  919, 1341, 1342,  918
 676, 1341,  593,  594, 1342
 677,  918, 1342, 1343,  917
 678, 1342,  594,  595, 1343
 679,  917, 1343, 1344,  916
 680, 1343,  595,  596, 1344
 681,  916, 1344, 1345,  915
 682, 1344,  596,  597, 1345
 683,  915, 1345, 1346,  914
 684, 1345,  597,  598, 1346
 685,  914, 1346, 1347,  913
 686, 1346,  598,  599, 1347
 687,  913, 1347, 1348,  912
 688, 1347,  599,  600, 1348
 689,  912, 1348, 1349,  911
 690, 1348,  600,  601, 1349
 691,  911, 1349, 1350,  910
 692, 1349,  601,  602, 1350
 693,  910, 1350, 1351,  909
 694, 1350,  602,  603, 1351
 695,  909, 1351, 1352,  908
 696, 1351,  603,  604, 1352
 697,  908, 1352, 1353,  907
 698, 1352,  604,  605, 1353
 699,  907, 1353, 1354,  906
 700, 1353,  605,  606, 1354
 701,  906, 1354, 1355,  905
 702, 1354,  606,  607, 1355
 703,  905, 1355, 1356,  904
 704, 1355,  607,  608, 1356
 705,  904, 1356, 1357,  903
 706, 1356,  608,  609, 1357
 707,  903, 1357, 1358,  902
 708, 1357,  609,  610, 1358
 709,  902, 1358, 1359,  901
 710, 1358,  610,  611, 1359
 711,  901, 1359, 1360,  900
 712, 1359,  611,  612, 1360
 713,  900, 1360, 1361,  899
 714, 1360,  612,  613, 1361
 715,  899, 1361, 1362,  898
 716, 1361,  613,  614, 1362
 717,  898, 1362, 1363,  897
 718, 1362,  614,  615, 1363
 719,  897, 1363, 1364,  896
 720, 1363,  615,  616, 1364
 721,  896, 1364, 1365,  895
 722, 1364,  616,  617, 1365
 723,  895, 1365, 1366,  894
 724, 1365,  617,  618, 1366
 725,  894, 1366, 1367,  893
 726, 1366,  618,  619, 1367
 727,  893, 1367, 1368,  892
 728, 1367,  619,  620, 1368
 729,  892, 1368, 1369,  891
 730, 1368,  620,  621, 1369
 731,  891, 1369, 1370,  890
 732, 1369,  621,  622, 1370
 733,  890, 1370, 1371,  889
 734, 1370,  622,  623, 1371
 735,  889, 1371, 1372,  888
 736, 1371,  623,  624, 1372
 737,  888, 1372, 1373,  887
 738, 1372,  624,  625, 1373
 739,  887, 1373, 1374,  886
 740, 1373,  625,  626, 1374
 741,  886, 1374, 1375,  885
 742, 1374,  626,  627, 1375
 743,  885, 1375, 1376,  884
 744, 1375,  627,  628, 1376
 745,  884, 1376, 1377,  883
 746, 1376,  628,  629, 1377
 747,  883, 1377, 1378,  882
 748, 1377,  629,  630, 1378
 749,  882, 1378, 1379,  881
 750, 1378,  630,  631, 1379
 751,  881, 1379, 1380,  880
 752, 1379,  631,  632, 1380
 753,  880, 1380, 1381,  879
 754, 1380,  632,  633, 1381
 755,  879, 1381, 1382,  878
 756, 1381,  633,  634, 1382
 757,  878, 1382, 1383,  877
 758, 1382,  634,  635, 1383
 759,  877, 1383, 1384,  876
 760, 1383,  635,  636, 1384
 761,  876, 1384, 1385,  875
 762, 1384,  636,  637, 1385
 763,  875, 1385, 1386,  874
 764, 1385,  637,  638, 1386
 765,  874, 1386, 1387,  873
 766, 1386,  638,  639, 1387
 767,  873, 1387, 1388,  872
 768, 1387,  639,  640, 1388
 769,  872, 1388, 1389,  871
 770, 1388,  640,  641, 1389
 771,  871, 1389, 1390,  870
 772, 1389,  641,  642, 1390
 773,  870, 1390, 1391,  869
 774, 1390,  642,  643, 1391
 775,  869, 1391, 1392,  868
 776, 1391,  643,  644, 1392
 777,  868, 1392, 1393,  867
 778, 1392,  644,  645, 1393
 779,  867, 1393, 1394,  866
 780, 1393,  645,  646, 1394
 781,  866, 1394, 1395,  865
 782, 1394,  646,  647, 1395
 783,  865, 1395, 1396,  864
 784, 1395,  647,  648, 1396
 785,  864, 1396, 1397,  863
 786, 1396,  648,  649, 1397
 787,  863, 1397, 1398,  862
 788, 1397,  649,  650, 1398
 789,  862, 1398, 1399,  861
 790, 1398,  650,  651, 1399
 791,  861, 1399, 1400,  860
 792, 1399,  651,  652, 1400
 793,  860, 1400, 1401,  859
 794, 1400,  652,  653, 1401
 795,  859, 1401, 1402,  858
 796, 1401,  653,  654, 1402
 797,  858, 1402, 1403,  857
 798, 1402,  654,  655, 1403
 799,  857, 1403, 1404,  856
 800, 1403,  655,  656, 1404
 801,  856, 1404, 1405,  855
 802, 1404,  656,  657, 1405
 803,  855, 1405, 1406,  854
 804, 1405,  657,  658, 1406
 805,  854, 1406, 1407,  853
 806, 1406,  658,  659, 1407
 807,  853, 1407, 1408,  852
 808, 1407,  659,  660, 1408
 809,  852, 1408, 1409,  851
 810, 1408,  660,  661, 1409
 811,  851, 1409, 1410,  850
 812, 1409,  661,  662, 1410
 813,  850, 1410, 1411,  849
 814, 1410,  662,  663, 1411
 815,  849, 1411, 1412,  848
 816, 1411,  663,  664, 1412
 817,  848, 1412, 1413,  847
 818, 1412,  664,  665, 1413
 819,  847, 1413, 1414,  846
 820, 1413,  665,  666, 1414
 821,  846, 1414, 1415,  845
 822, 1414,  666,  667, 1415
 823,  845, 1415, 1416,  844
 824, 1415,  667,  668, 1416
 825,  844, 1416, 1417,  843
 826, 1416,  668,  669, 1417
 827,  843, 1417, 1418,  842
 828, 1417,  669,  670, 1418
 829,  842, 1418, 1419,  841
 830, 1418,  670,  671, 1419
 831,  841, 1419, 1420,  840
 832, 1419,  671,  672, 1420
 833,  840, 1420, 1421,  839
 834, 1420,  672,  673, 1421
 835,  839, 1421, 1422,  838
 836, 1421,  673,  674, 1422
 837,  838, 1422, 1423,  837
 838, 1422,  674,  675, 1423
 839,  837, 1423, 1424,  836
 840, 1423,  675,  676, 1424
 841,  836, 1424, 1425,  835
 842, 1424,  676,  677, 1425
 843,  835, 1425, 1426,  834
 844, 1425,  677,  678, 1426
 845,  834, 1426, 1427,  833
 846, 1426,  678,  679, 1427
 847,  833, 1427, 1428,  832
 848, 1427,  679,  680, 1428
 849,  832, 1428, 1429,  831
 850, 1428,  680,  681, 1429
 851,  831, 1429, 1430,  830
 852, 1429,  681,  682, 1430
 853,  830, 1430, 1431,  829
 854, 1430,  682,  683, 1431
 855,  829, 1431, 1432,  828
 856, 1431,  683,  684, 1432
 857,  828, 1432, 1433,  827
 858, 1432,  684,  685, 1433
 859,  827, 1433, 1434,  826
 860, 1433,  685,  686, 1434
 861,  826, 1434, 1435,  825
 862, 1434,  686,  687, 1435
 863,  825, 1435, 1436,  824
 864, 1435,  687,  688, 1436
 865,  824, 1436, 1437,  823
 866, 1436,  688,  689, 1437
 867,  823, 1437, 1438,  822
 868, 1437,  689,  690, 1438
 869,  822, 1438, 1439,  821
 870, 1438,  690,  691, 1439
 871,  821, 1439, 1440,  820
 872, 1439,  691,  692, 1440
 873,  820, 1440, 1441,  819
 874, 1440,  692,  693, 1441
 875,  819, 1441, 1442,  818
 876, 1441,  693,  694, 1442
 877,  818, 1442, 1443,  817
 878, 1442,  694,  695, 1443
 879,  817, 1443, 1444,  816
 880, 1443,  695,  696, 1444
 881,  816, 1444, 1445,  815
 882, 1444,  696,  697, 1445
 883,  815, 1445, 1446,  814
 884, 1445,  697,  698, 1446
 885,  814, 1446, 1447,  813
 886, 1446,  698,  699, 1447
 887,  813, 1447, 1448,  812
 888, 1447,  699,  700, 1448
 889,  812, 1448, 1449,  811
 890, 1448,  700,  701, 1449
 891,  811, 1449, 1450,  810
 892, 1449,  701,  702, 1450
 893,  810, 1450, 1451,  809
 894, 1450,  702,  703, 1451
 895,  809, 1451, 1452,  808
 896, 1451,  703,  704, 1452
 897,  808, 1452, 1453,  807
 898, 1452,  704,  705, 1453
 899,  807, 1453, 1454,  806
 900, 1453,  705,  706, 1454
 901,  806, 1454, 1455,  805
 902, 1454,  706,  707, 1455
 903,  805, 1455, 1456,  804
 904, 1455,  707,  708, 1456
 905,  804, 1456, 1457,  803
 906, 1456,  708,  709, 1457
 907,  803, 1457, 1458,  802
 908, 1457,  709,  710, 1458
 909,  802, 1458, 1459,  801
 910, 1458,  710,  711, 1459
 911,  801, 1459, 1460,  800
 912, 1459,  711,  712, 1460
 913,  800, 1460, 1461,  799
 914, 1460,  712,  713, 1461
 915,  799, 1461, 1462,  798
 916, 1461,  713,  714, 1462
 917,  798, 1462, 1463,  797
 918, 1462,  714,  715, 1463
 919,  797, 1463, 1464,  796
 920, 1463,  715,  716, 1464
 921,  796, 1464, 1465,  795
 922, 1464,  716,  717, 1465
 923,  795, 1465, 1466,  794
 924, 1465,  717,  718, 1466
 925,  794, 1466, 1467,  793
 926, 1466,  718,  719, 1467
 927,  793, 1467, 1468,  792
 928, 1467,  719,  720, 1468
 929,  792, 1468, 1469,  791
 930, 1468,  720,  721, 1469
 931,  791, 1469, 1470,  790
 932, 1469,  721,  722, 1470
 933,  790, 1470, 1471,  789
 934, 1470,  722,  723, 1471
 935,  789, 1471, 1472,  788
 936, 1471,  723,  724, 1472
 937,  788, 1472, 1473,  787
 938, 1472,  724,  725, 1473
 939,  787, 1473, 1474,  786
 940, 1473,  725,  726, 1474
 941,  786, 1474, 1475,  785
 942, 1474,  726,  727, 1475
 943,  785, 1475, 1476,  784
 944, 1475,  727,  728, 1476
 945,  784, 1476, 1477,  783
 946, 1476,  728,  729, 1477
 947,  783, 1477, 1478,  782
 948, 1477,  729,  730, 1478
 949,  782, 1478, 1479,  781
 950, 1478,  730,  731, 1479
 951,  781, 1479, 1480,  780
 952, 1479,  731,  732, 1480
 953,  780, 1480, 1481,  779
 954, 1480,  732,  733, 1481
 955,  779, 1481, 1482,  778
 956, 1481,  733,  734, 1482
 957,  778, 1482, 1483,  777
 958, 1482,  734,  735, 1483
 959,  777, 1483, 1484,  776
 960, 1483,  735,  736, 1484
 961,  776, 1484, 1485,  775
 962, 1484,  736,  737, 1485
 963,  775, 1485, 1486,  774
 964, 1485,  737,  738, 1486
 965,  774, 1486, 1487,  773
 966, 1486,  738,  739, 1487
 967,  773, 1487, 1488,  772
 968, 1487,  739,  740, 1488
 969,  772, 1488, 1489,  771
 970, 1488,  740,  741, 1489
 971,  771, 1489, 1490,  770
 972, 1489,  741,  742, 1490
 973,  770, 1490, 1491,  769
 974, 1490,  742,  743, 1491
 975,  769, 1491, 1492,  768
 976, 1491,  743,  744, 1492
 977,  768, 1492, 1493,  767
 978, 1492,  744,  745, 1493
 979,  767, 1493, 1494,  766
 980, 1493,  745,  746, 1494
 981,  766, 1494, 1495,  765
 982, 1494,  746,  747, 1495
 983,  765, 1495, 1496,  764
 984, 1495,  747,  748, 1496
 985,  764, 1496, 1497,  763
 986, 1496,  748,  749, 1497
 987,  763, 1497, 1498,  762
 988, 1497,  749,  750, 1498
 989,  762, 1498, 1499,  761
 990, 1498,  750,  751, 1499
 991,  761, 1499, 1500,  760
 992, 1499,  751,  752, 1500
 993,  760, 1500, 1501,  759
 994, 1500,  752,  753, 1501
 995,  759, 1501, 1502,  758
 996, 1501,  753,  754, 1502
 997,  758, 1502, 1503,  757
 998, 1502,  754,  755, 1503
 999,  757, 1503,  756,    6
1000, 1503,  755,    5,  756
*Nset, nset=Set-1, generate
    1,  1503,     1
*Elset, elset=Set-1, generate
    1,  1000,     1
** Section: Adherend
*Solid Section, elset=Set-1, material=Adherend
,
*End Part
**  
*Part, name=Thin_Film
*Node
      1,   14.5165148,           1.
      2,          15.,           1.
      3,          15.,           6.
      4,   14.6000004,   1.39999998
      5,   14.6000004,           6.
      6,          14.,  0.483484864
      7,          14.,           0.
      8,   13.6000004,  0.400000006
      9,         -36.,  0.400000006
     10,         -36.,           0.
     11,   14.5970955,           1.
     12,   14.6776772,           1.
     13,   14.7582579,           1.
     14,   14.8388386,           1.
     15,   14.9194193,           1.
     16,          15.,   1.20000005
     17,          15.,   1.39999998
     18,          15.,   1.60000002
     19,          15.,   1.79999995
     20,          15.,           2.
     21,          15.,   2.20000005
     22,          15.,    2.4000001
     23,          15.,    2.5999999
     24,          15.,   2.79999995
     25,          15.,           3.
     26,          15.,   3.20000005
     27,          15.,    3.4000001
     28,          15.,    3.5999999
     29,          15.,   3.79999995
     30,          15.,           4.
     31,          15.,   4.19999981
     32,          15.,    4.4000001
     33,          15.,    4.5999999
     34,          15.,   4.80000019
     35,          15.,           5.
     36,          15.,   5.19999981
     37,          15.,    5.4000001
     38,          15.,    5.5999999
     39,          15.,   5.80000019
     40,   14.9333334,           6.
     41,   14.8666668,           6.
     42,   14.8000002,           6.
     43,   14.7333336,           6.
     44,    14.666667,           6.
     45,   14.5789061,   1.19569039
     46,   14.6000004,   5.80000019
     47,   14.6000004,    5.5999999
     48,   14.6000004,    5.4000001
     49,   14.6000004,   5.19999981
     50,   14.6000004,           5.
     51,   14.6000004,   4.80000019
     52,   14.6000004,    4.5999999
     53,   14.6000004,    4.4000001
     54,   14.6000004,   4.19999981
     55,   14.6000004,           4.
     56,   14.6000004,   3.79999995
     57,   14.6000004,    3.5999999
     58,   14.6000004,    3.4000001
     59,   14.6000004,   3.20000005
     60,   14.6000004,           3.
     61,   14.6000004,   2.79999995
     62,   14.6000004,    2.5999999
     63,   14.6000004,    2.4000001
     64,   14.6000004,   2.20000005
     65,   14.6000004,           2.
     66,   14.6000004,   1.79999995
     67,   14.6000004,   1.60000002
     68,          14.,  0.402904063
     69,          14.,  0.322323233
     70,          14.,  0.241742432
     71,          14.,  0.161161616
     72,          14., 0.0805808082
     73,   14.1950903, 0.0192147195
     74,   14.3826838,  0.076120466
     75,   14.5555706,   0.16853039
     76,   14.7071066,  0.292893231
     77,   14.8314695,  0.444429755
     78,   14.9238796,  0.617316544
     79,   14.9807854,  0.804909706
     80,   14.4751806,  0.916203797
     81,   14.4262056,  0.836631298
     82,   14.3700171,  0.761977196
     83,    14.307107,  0.692893207
     84,   14.2380228,  0.629982531
     85,   14.1633692,  0.573794425
     86,   14.0837965,  0.524819314
     87,   13.8043098,  0.421093673
     88,   13.3999996,  0.400000006
     89,   13.1999998,  0.400000006
     90,          13.,  0.400000006
     91,   12.8000002,  0.400000006
     92,   12.6000004,  0.400000006
     93,   12.3999996,  0.400000006
     94,   12.1999998,  0.400000006
     95,          12.,  0.400000006
     96,   11.8000002,  0.400000006
     97,   11.6000004,  0.400000006
     98,   11.3999996,  0.400000006
     99,   11.1999998,  0.400000006
    100,          11.,  0.400000006
    101,   10.8000002,  0.400000006
    102,   10.6000004,  0.400000006
    103,   10.3999996,  0.400000006
    104,   10.1999998,  0.400000006
    105,          10.,  0.400000006
    106,   9.80000019,  0.400000006
    107,   9.60000038,  0.400000006
    108,   9.39999962,  0.400000006
    109,   9.19999981,  0.400000006
    110,           9.,  0.400000006
    111,   8.80000019,  0.400000006
    112,   8.60000038,  0.400000006
    113,   8.39999962,  0.400000006
    114,   8.19999981,  0.400000006
    115,           8.,  0.400000006
    116,   7.80000019,  0.400000006
    117,    7.5999999,  0.400000006
    118,    7.4000001,  0.400000006
    119,   7.19999981,  0.400000006
    120,           7.,  0.400000006
    121,   6.80000019,  0.400000006
    122,    6.5999999,  0.400000006
    123,    6.4000001,  0.400000006
    124,   6.19999981,  0.400000006
    125,           6.,  0.400000006
    126,   5.80000019,  0.400000006
    127,    5.5999999,  0.400000006
    128,    5.4000001,  0.400000006
    129,   5.19999981,  0.400000006
    130,           5.,  0.400000006
    131,   4.80000019,  0.400000006
    132,    4.5999999,  0.400000006
    133,    4.4000001,  0.400000006
    134,   4.19999981,  0.400000006
    135,           4.,  0.400000006
    136,   3.79999995,  0.400000006
    137,    3.5999999,  0.400000006
    138,    3.4000001,  0.400000006
    139,   3.20000005,  0.400000006
    140,           3.,  0.400000006
    141,   2.79999995,  0.400000006
    142,    2.5999999,  0.400000006
    143,    2.4000001,  0.400000006
    144,   2.20000005,  0.400000006
    145,           2.,  0.400000006
    146,   1.79999995,  0.400000006
    147,   1.60000002,  0.400000006
    148,   1.39999998,  0.400000006
    149,   1.20000005,  0.400000006
    150,           1.,  0.400000006
    151,  0.800000012,  0.400000006
    152,  0.600000024,  0.400000006
    153,  0.400000006,  0.400000006
    154,  0.200000003,  0.400000006
    155,           0.,  0.400000006
    156, -0.200000003,  0.400000006
    157, -0.400000006,  0.400000006
    158, -0.600000024,  0.400000006
    159, -0.800000012,  0.400000006
    160,          -1.,  0.400000006
    161,  -1.20000005,  0.400000006
    162,  -1.39999998,  0.400000006
    163,  -1.60000002,  0.400000006
    164,  -1.79999995,  0.400000006
    165,          -2.,  0.400000006
    166,  -2.20000005,  0.400000006
    167,   -2.4000001,  0.400000006
    168,   -2.5999999,  0.400000006
    169,  -2.79999995,  0.400000006
    170,          -3.,  0.400000006
    171,  -3.20000005,  0.400000006
    172,   -3.4000001,  0.400000006
    173,   -3.5999999,  0.400000006
    174,  -3.79999995,  0.400000006
    175,          -4.,  0.400000006
    176,  -4.19999981,  0.400000006
    177,   -4.4000001,  0.400000006
    178,   -4.5999999,  0.400000006
    179,  -4.80000019,  0.400000006
    180,          -5.,  0.400000006
    181,  -5.19999981,  0.400000006
    182,   -5.4000001,  0.400000006
    183,   -5.5999999,  0.400000006
    184,  -5.80000019,  0.400000006
    185,          -6.,  0.400000006
    186,  -6.19999981,  0.400000006
    187,   -6.4000001,  0.400000006
    188,   -6.5999999,  0.400000006
    189,  -6.80000019,  0.400000006
    190,          -7.,  0.400000006
    191,  -7.19999981,  0.400000006
    192,   -7.4000001,  0.400000006
    193,   -7.5999999,  0.400000006
    194,  -7.80000019,  0.400000006
    195,          -8.,  0.400000006
    196,  -8.19999981,  0.400000006
    197,  -8.39999962,  0.400000006
    198,  -8.60000038,  0.400000006
    199,  -8.80000019,  0.400000006
    200,          -9.,  0.400000006
    201,  -9.19999981,  0.400000006
    202,  -9.39999962,  0.400000006
    203,  -9.60000038,  0.400000006
    204,  -9.80000019,  0.400000006
    205,         -10.,  0.400000006
    206,  -10.1999998,  0.400000006
    207,  -10.3999996,  0.400000006
    208,  -10.6000004,  0.400000006
    209,  -10.8000002,  0.400000006
    210,         -11.,  0.400000006
    211,  -11.1999998,  0.400000006
    212,  -11.3999996,  0.400000006
    213,  -11.6000004,  0.400000006
    214,  -11.8000002,  0.400000006
    215,         -12.,  0.400000006
    216,  -12.1999998,  0.400000006
    217,  -12.3999996,  0.400000006
    218,  -12.6000004,  0.400000006
    219,  -12.8000002,  0.400000006
    220,         -13.,  0.400000006
    221,  -13.1999998,  0.400000006
    222,  -13.3999996,  0.400000006
    223,  -13.6000004,  0.400000006
    224,  -13.8000002,  0.400000006
    225,         -14.,  0.400000006
    226,  -14.1999998,  0.400000006
    227,  -14.3999996,  0.400000006
    228,  -14.6000004,  0.400000006
    229,  -14.8000002,  0.400000006
    230,         -15.,  0.400000006
    231,  -15.1999998,  0.400000006
    232,  -15.3999996,  0.400000006
    233,  -15.6000004,  0.400000006
    234,  -15.8000002,  0.400000006
    235,         -16.,  0.400000006
    236,  -16.2000008,  0.400000006
    237,  -16.3999996,  0.400000006
    238,  -16.6000004,  0.400000006
    239,  -16.7999992,  0.400000006
    240,         -17.,  0.400000006
    241,  -17.2000008,  0.400000006
    242,  -17.3999996,  0.400000006
    243,  -17.6000004,  0.400000006
    244,  -17.7999992,  0.400000006
    245,         -18.,  0.400000006
    246,  -18.2000008,  0.400000006
    247,  -18.3999996,  0.400000006
    248,  -18.6000004,  0.400000006
    249,  -18.7999992,  0.400000006
    250,         -19.,  0.400000006
    251,  -19.2000008,  0.400000006
    252,  -19.3999996,  0.400000006
    253,  -19.6000004,  0.400000006
    254,  -19.7999992,  0.400000006
    255,         -20.,  0.400000006
    256,  -20.2000008,  0.400000006
    257,  -20.3999996,  0.400000006
    258,  -20.6000004,  0.400000006
    259,  -20.7999992,  0.400000006
    260,         -21.,  0.400000006
    261,  -21.2000008,  0.400000006
    262,  -21.3999996,  0.400000006
    263,  -21.6000004,  0.400000006
    264,  -21.7999992,  0.400000006
    265,         -22.,  0.400000006
    266,  -22.2000008,  0.400000006
    267,  -22.3999996,  0.400000006
    268,  -22.6000004,  0.400000006
    269,  -22.7999992,  0.400000006
    270,         -23.,  0.400000006
    271,  -23.2000008,  0.400000006
    272,  -23.3999996,  0.400000006
    273,  -23.6000004,  0.400000006
    274,  -23.7999992,  0.400000006
    275,         -24.,  0.400000006
    276,  -24.2000008,  0.400000006
    277,  -24.3999996,  0.400000006
    278,  -24.6000004,  0.400000006
    279,  -24.7999992,  0.400000006
    280,         -25.,  0.400000006
    281,  -25.2000008,  0.400000006
    282,  -25.3999996,  0.400000006
    283,  -25.6000004,  0.400000006
    284,  -25.7999992,  0.400000006
    285,         -26.,  0.400000006
    286,  -26.2000008,  0.400000006
    287,  -26.3999996,  0.400000006
    288,  -26.6000004,  0.400000006
    289,  -26.7999992,  0.400000006
    290,         -27.,  0.400000006
    291,  -27.2000008,  0.400000006
    292,  -27.3999996,  0.400000006
    293,  -27.6000004,  0.400000006
    294,  -27.7999992,  0.400000006
    295,         -28.,  0.400000006
    296,  -28.2000008,  0.400000006
    297,  -28.3999996,  0.400000006
    298,  -28.6000004,  0.400000006
    299,  -28.7999992,  0.400000006
    300,         -29.,  0.400000006
    301,  -29.2000008,  0.400000006
    302,  -29.3999996,  0.400000006
    303,  -29.6000004,  0.400000006
    304,  -29.7999992,  0.400000006
    305,         -30.,  0.400000006
    306,  -30.2000008,  0.400000006
    307,  -30.3999996,  0.400000006
    308,  -30.6000004,  0.400000006
    309,  -30.7999992,  0.400000006
    310,         -31.,  0.400000006
    311,  -31.2000008,  0.400000006
    312,  -31.3999996,  0.400000006
    313,  -31.6000004,  0.400000006
    314,  -31.7999992,  0.400000006
    315,         -32.,  0.400000006
    316,  -32.2000008,  0.400000006
    317,  -32.4000015,  0.400000006
    318,  -32.5999985,  0.400000006
    319,  -32.7999992,  0.400000006
    320,         -33.,  0.400000006
    321,  -33.2000008,  0.400000006
    322,  -33.4000015,  0.400000006
    323,  -33.5999985,  0.400000006
    324,  -33.7999992,  0.400000006
    325,         -34.,  0.400000006
    326,  -34.2000008,  0.400000006
    327,  -34.4000015,  0.400000006
    328,  -34.5999985,  0.400000006
    329,  -34.7999992,  0.400000006
    330,         -35.,  0.400000006
    331,  -35.2000008,  0.400000006
    332,  -35.4000015,  0.400000006
    333,  -35.5999985,  0.400000006
    334,  -35.7999992,  0.400000006
    335,         -36.,  0.333333343
    336,         -36.,  0.266666681
    337,         -36.,  0.200000003
    338,         -36.,   0.13333334
    339,         -36., 0.0666666701
    340,  -35.7999992,           0.
    341,  -35.5999985,           0.
    342,  -35.4000015,           0.
    343,  -35.2000008,           0.
    344,         -35.,           0.
    345,  -34.7999992,           0.
    346,  -34.5999985,           0.
    347,  -34.4000015,           0.
    348,  -34.2000008,           0.
    349,         -34.,           0.
    350,  -33.7999992,           0.
    351,  -33.5999985,           0.
    352,  -33.4000015,           0.
    353,  -33.2000008,           0.
    354,         -33.,           0.
    355,  -32.7999992,           0.
    356,  -32.5999985,           0.
    357,  -32.4000015,           0.
    358,  -32.2000008,           0.
    359,         -32.,           0.
    360,  -31.7999992,           0.
    361,  -31.6000004,           0.
    362,  -31.3999996,           0.
    363,  -31.2000008,           0.
    364,         -31.,           0.
    365,  -30.7999992,           0.
    366,  -30.6000004,           0.
    367,  -30.3999996,           0.
    368,  -30.2000008,           0.
    369,         -30.,           0.
    370,  -29.7999992,           0.
    371,  -29.6000004,           0.
    372,  -29.3999996,           0.
    373,  -29.2000008,           0.
    374,         -29.,           0.
    375,  -28.7999992,           0.
    376,  -28.6000004,           0.
    377,  -28.3999996,           0.
    378,  -28.2000008,           0.
    379,         -28.,           0.
    380,  -27.7999992,           0.
    381,  -27.6000004,           0.
    382,  -27.3999996,           0.
    383,  -27.2000008,           0.
    384,         -27.,           0.
    385,  -26.7999992,           0.
    386,  -26.6000004,           0.
    387,  -26.3999996,           0.
    388,  -26.2000008,           0.
    389,         -26.,           0.
    390,  -25.7999992,           0.
    391,  -25.6000004,           0.
    392,  -25.3999996,           0.
    393,  -25.2000008,           0.
    394,         -25.,           0.
    395,  -24.7999992,           0.
    396,  -24.6000004,           0.
    397,  -24.3999996,           0.
    398,  -24.2000008,           0.
    399,         -24.,           0.
    400,  -23.7999992,           0.
    401,  -23.6000004,           0.
    402,  -23.3999996,           0.
    403,  -23.2000008,           0.
    404,         -23.,           0.
    405,  -22.7999992,           0.
    406,  -22.6000004,           0.
    407,  -22.3999996,           0.
    408,  -22.2000008,           0.
    409,         -22.,           0.
    410,  -21.7999992,           0.
    411,  -21.6000004,           0.
    412,  -21.3999996,           0.
    413,  -21.2000008,           0.
    414,         -21.,           0.
    415,  -20.7999992,           0.
    416,  -20.6000004,           0.
    417,  -20.3999996,           0.
    418,  -20.2000008,           0.
    419,         -20.,           0.
    420,  -19.7999992,           0.
    421,  -19.6000004,           0.
    422,  -19.3999996,           0.
    423,  -19.2000008,           0.
    424,         -19.,           0.
    425,  -18.7999992,           0.
    426,  -18.6000004,           0.
    427,  -18.3999996,           0.
    428,  -18.2000008,           0.
    429,         -18.,           0.
    430,  -17.7999992,           0.
    431,  -17.6000004,           0.
    432,  -17.3999996,           0.
    433,  -17.2000008,           0.
    434,         -17.,           0.
    435,  -16.7999992,           0.
    436,  -16.6000004,           0.
    437,  -16.3999996,           0.
    438,  -16.2000008,           0.
    439,         -16.,           0.
    440,  -15.8000002,           0.
    441,  -15.6000004,           0.
    442,  -15.3999996,           0.
    443,  -15.1999998,           0.
    444,         -15.,           0.
    445,  -14.8000002,           0.
    446,  -14.6000004,           0.
    447,  -14.3999996,           0.
    448,  -14.1999998,           0.
    449,         -14.,           0.
    450,  -13.8000002,           0.
    451,  -13.6000004,           0.
    452,  -13.3999996,           0.
    453,  -13.1999998,           0.
    454,         -13.,           0.
    455,  -12.8000002,           0.
    456,  -12.6000004,           0.
    457,  -12.3999996,           0.
    458,  -12.1999998,           0.
    459,         -12.,           0.
    460,  -11.8000002,           0.
    461,  -11.6000004,           0.
    462,  -11.3999996,           0.
    463,  -11.1999998,           0.
    464,         -11.,           0.
    465,  -10.8000002,           0.
    466,  -10.6000004,           0.
    467,  -10.3999996,           0.
    468,  -10.1999998,           0.
    469,         -10.,           0.
    470,  -9.80000019,           0.
    471,  -9.60000038,           0.
    472,  -9.39999962,           0.
    473,  -9.19999981,           0.
    474,          -9.,           0.
    475,  -8.80000019,           0.
    476,  -8.60000038,           0.
    477,  -8.39999962,           0.
    478,  -8.19999981,           0.
    479,          -8.,           0.
    480,  -7.80000019,           0.
    481,   -7.5999999,           0.
    482,   -7.4000001,           0.
    483,  -7.19999981,           0.
    484,          -7.,           0.
    485,  -6.80000019,           0.
    486,   -6.5999999,           0.
    487,   -6.4000001,           0.
    488,  -6.19999981,           0.
    489,          -6.,           0.
    490,  -5.80000019,           0.
    491,   -5.5999999,           0.
    492,   -5.4000001,           0.
    493,  -5.19999981,           0.
    494,          -5.,           0.
    495,  -4.80000019,           0.
    496,   -4.5999999,           0.
    497,   -4.4000001,           0.
    498,  -4.19999981,           0.
    499,          -4.,           0.
    500,  -3.79999995,           0.
    501,   -3.5999999,           0.
    502,   -3.4000001,           0.
    503,  -3.20000005,           0.
    504,          -3.,           0.
    505,  -2.79999995,           0.
    506,   -2.5999999,           0.
    507,   -2.4000001,           0.
    508,  -2.20000005,           0.
    509,          -2.,           0.
    510,  -1.79999995,           0.
    511,  -1.60000002,           0.
    512,  -1.39999998,           0.
    513,  -1.20000005,           0.
    514,          -1.,           0.
    515, -0.800000012,           0.
    516, -0.600000024,           0.
    517, -0.400000006,           0.
    518, -0.200000003,           0.
    519,           0.,           0.
    520,  0.200000003,           0.
    521,  0.400000006,           0.
    522,  0.600000024,           0.
    523,  0.800000012,           0.
    524,           1.,           0.
    525,   1.20000005,           0.
    526,   1.39999998,           0.
    527,   1.60000002,           0.
    528,   1.79999995,           0.
    529,           2.,           0.
    530,   2.20000005,           0.
    531,    2.4000001,           0.
    532,    2.5999999,           0.
    533,   2.79999995,           0.
    534,           3.,           0.
    535,   3.20000005,           0.
    536,    3.4000001,           0.
    537,    3.5999999,           0.
    538,   3.79999995,           0.
    539,           4.,           0.
    540,   4.19999981,           0.
    541,    4.4000001,           0.
    542,    4.5999999,           0.
    543,   4.80000019,           0.
    544,           5.,           0.
    545,   5.19999981,           0.
    546,    5.4000001,           0.
    547,    5.5999999,           0.
    548,   5.80000019,           0.
    549,           6.,           0.
    550,   6.19999981,           0.
    551,    6.4000001,           0.
    552,    6.5999999,           0.
    553,   6.80000019,           0.
    554,           7.,           0.
    555,   7.19999981,           0.
    556,    7.4000001,           0.
    557,    7.5999999,           0.
    558,   7.80000019,           0.
    559,           8.,           0.
    560,   8.19999981,           0.
    561,   8.39999962,           0.
    562,   8.60000038,           0.
    563,   8.80000019,           0.
    564,           9.,           0.
    565,   9.19999981,           0.
    566,   9.39999962,           0.
    567,   9.60000038,           0.
    568,   9.80000019,           0.
    569,          10.,           0.
    570,   10.1999998,           0.
    571,   10.3999996,           0.
    572,   10.6000004,           0.
    573,   10.8000002,           0.
    574,          11.,           0.
    575,   11.1999998,           0.
    576,   11.3999996,           0.
    577,   11.6000004,           0.
    578,   11.8000002,           0.
    579,          12.,           0.
    580,   12.1999998,           0.
    581,   12.3999996,           0.
    582,   12.6000004,           0.
    583,   12.8000002,           0.
    584,          13.,           0.
    585,   13.1999998,           0.
    586,   13.3999996,           0.
    587,   13.6000004,           0.
    588,   13.8000002,           0.
    589,   14.6490889,   1.19640863
    590,   14.7192707,   1.19712687
    591,   14.7894535,   1.19784522
    592,   14.8596354,   1.19856346
    593,   14.9298182,   1.19928169
    594,    14.666667,   1.39999998
    595,   14.7333336,   1.39999998
    596,   14.8000002,   1.39999998
    597,   14.8666668,   1.39999998
    598,   14.9333334,   1.39999998
    599,    14.666667,   1.60000002
    600,   14.7333336,   1.60000002
    601,   14.8000002,   1.60000002
    602,   14.8666668,   1.60000002
    603,   14.9333334,   1.60000002
    604,    14.666667,   1.79999995
    605,   14.7333336,   1.79999995
    606,   14.8000002,   1.79999995
    607,   14.8666668,   1.79999995
    608,   14.9333334,   1.79999995
    609,    14.666667,           2.
    610,   14.7333336,           2.
    611,   14.8000002,           2.
    612,   14.8666668,           2.
    613,   14.9333334,           2.
    614,    14.666667,   2.20000005
    615,   14.7333336,   2.20000005
    616,   14.8000002,   2.20000005
    617,   14.8666668,   2.20000005
    618,   14.9333334,   2.20000005
    619,    14.666667,    2.4000001
    620,   14.7333336,    2.4000001
    621,   14.8000002,    2.4000001
    622,   14.8666668,    2.4000001
    623,   14.9333334,    2.4000001
    624,    14.666667,    2.5999999
    625,   14.7333336,    2.5999999
    626,   14.8000002,    2.5999999
    627,   14.8666668,    2.5999999
    628,   14.9333334,    2.5999999
    629,    14.666667,   2.79999995
    630,   14.7333336,   2.79999995
    631,   14.8000002,   2.79999995
    632,   14.8666668,   2.79999995
    633,   14.9333334,   2.79999995
    634,    14.666667,           3.
    635,   14.7333336,           3.
    636,   14.8000002,           3.
    637,   14.8666668,           3.
    638,   14.9333334,           3.
    639,    14.666667,   3.20000005
    640,   14.7333336,   3.20000005
    641,   14.8000002,   3.20000005
    642,   14.8666668,   3.20000005
    643,   14.9333334,   3.20000005
    644,    14.666667,    3.4000001
    645,   14.7333336,    3.4000001
    646,   14.8000002,    3.4000001
    647,   14.8666668,    3.4000001
    648,   14.9333334,    3.4000001
    649,    14.666667,    3.5999999
    650,   14.7333336,    3.5999999
    651,   14.8000002,    3.5999999
    652,   14.8666668,    3.5999999
    653,   14.9333334,    3.5999999
    654,    14.666667,   3.79999995
    655,   14.7333336,   3.79999995
    656,   14.8000002,   3.79999995
    657,   14.8666668,   3.79999995
    658,   14.9333334,   3.79999995
    659,    14.666667,           4.
    660,   14.7333336,           4.
    661,   14.8000002,           4.
    662,   14.8666668,           4.
    663,   14.9333334,           4.
    664,    14.666667,   4.19999981
    665,   14.7333336,   4.19999981
    666,   14.8000002,   4.19999981
    667,   14.8666668,   4.19999981
    668,   14.9333334,   4.19999981
    669,    14.666667,    4.4000001
    670,   14.7333336,    4.4000001
    671,   14.8000002,    4.4000001
    672,   14.8666668,    4.4000001
    673,   14.9333334,    4.4000001
    674,    14.666667,    4.5999999
    675,   14.7333336,    4.5999999
    676,   14.8000002,    4.5999999
    677,   14.8666668,    4.5999999
    678,   14.9333334,    4.5999999
    679,    14.666667,   4.80000019
    680,   14.7333336,   4.80000019
    681,   14.8000002,   4.80000019
    682,   14.8666668,   4.80000019
    683,   14.9333334,   4.80000019
    684,    14.666667,           5.
    685,   14.7333336,           5.
    686,   14.8000002,           5.
    687,   14.8666668,           5.
    688,   14.9333334,           5.
    689,    14.666667,   5.19999981
    690,   14.7333336,   5.19999981
    691,   14.8000002,   5.19999981
    692,   14.8666668,   5.19999981
    693,   14.9333334,   5.19999981
    694,    14.666667,    5.4000001
    695,   14.7333336,    5.4000001
    696,   14.8000002,    5.4000001
    697,   14.8666668,    5.4000001
    698,   14.9333334,    5.4000001
    699,    14.666667,    5.5999999
    700,   14.7333336,    5.5999999
    701,   14.8000002,    5.5999999
    702,   14.8666668,    5.5999999
    703,   14.9333334,    5.5999999
    704,    14.666667,   5.80000019
    705,   14.7333336,   5.80000019
    706,   14.8000002,   5.80000019
    707,   14.8666668,   5.80000019
    708,   14.9333334,   5.80000019
    709,   14.1023455,  0.440551877
    710,   14.1208944,   0.35628444
    711,   14.1394434,  0.272017032
    712,   14.1579924,   0.18774958
    713,   14.1765413,   0.10348215
    714,   14.1999216,   0.49084875
    715,    14.236474,  0.407903105
    716,   14.2730265,   0.32495743
    717,   14.3095789,  0.242011786
    718,   14.3461313,  0.159066126
    719,    14.290947,  0.553073883
    720,   14.3438721,  0.476165175
    721,   14.3967962,  0.399256468
    722,   14.4497213,   0.32234779
    723,   14.5026455,  0.245439082
    724,   14.3737736,  0.626226544
    725,   14.4404402,  0.559559882
    726,   14.5071068,  0.492893219
    727,   14.5737734,  0.426226556
    728,     14.64044,  0.359559894
    729,   14.4469261,  0.709052622
    730,   14.5238352,  0.656128049
    731,   14.6007433,  0.603203475
    732,   14.6776524,  0.550278902
    733,   14.7545605,  0.497354329
    734,   14.5091515,  0.800078809
    735,   14.5920973,   0.76352638
    736,   14.6750422,  0.726973891
    737,    14.757988,  0.690421462
    738,   14.8409338,  0.653869033
    739,   14.5594482,  0.897654772
    740,   14.6437159,  0.879105747
    741,   14.7279825,  0.860556722
    742,   14.8122501,  0.842007697
    743,   14.8965178,  0.823458672
    744,   13.8007183, 0.0701822788
    745,   13.8014364,  0.140364558
    746,   13.8021545,  0.210546836
    747,   13.8028727,  0.280729115
    748,   13.8035917,  0.350911409
    749,   13.6000004, 0.0666666701
    750,   13.6000004,   0.13333334
    751,   13.6000004,  0.200000003
    752,   13.6000004,  0.266666681
    753,   13.6000004,  0.333333343
    754,   13.3999996, 0.0666666701
    755,   13.3999996,   0.13333334
    756,   13.3999996,  0.200000003
    757,   13.3999996,  0.266666681
    758,   13.3999996,  0.333333343
    759,   13.1999998, 0.0666666701
    760,   13.1999998,   0.13333334
    761,   13.1999998,  0.200000003
    762,   13.1999998,  0.266666681
    763,   13.1999998,  0.333333343
    764,          13., 0.0666666701
    765,          13.,   0.13333334
    766,          13.,  0.200000003
    767,          13.,  0.266666681
    768,          13.,  0.333333343
    769,   12.8000002, 0.0666666701
    770,   12.8000002,   0.13333334
    771,   12.8000002,  0.200000003
    772,   12.8000002,  0.266666681
    773,   12.8000002,  0.333333343
    774,   12.6000004, 0.0666666701
    775,   12.6000004,   0.13333334
    776,   12.6000004,  0.200000003
    777,   12.6000004,  0.266666681
    778,   12.6000004,  0.333333343
    779,   12.3999996, 0.0666666701
    780,   12.3999996,   0.13333334
    781,   12.3999996,  0.200000003
    782,   12.3999996,  0.266666681
    783,   12.3999996,  0.333333343
    784,   12.1999998, 0.0666666701
    785,   12.1999998,   0.13333334
    786,   12.1999998,  0.200000003
    787,   12.1999998,  0.266666681
    788,   12.1999998,  0.333333343
    789,          12., 0.0666666701
    790,          12.,   0.13333334
    791,          12.,  0.200000003
    792,          12.,  0.266666681
    793,          12.,  0.333333343
    794,   11.8000002, 0.0666666701
    795,   11.8000002,   0.13333334
    796,   11.8000002,  0.200000003
    797,   11.8000002,  0.266666681
    798,   11.8000002,  0.333333343
    799,   11.6000004, 0.0666666701
    800,   11.6000004,   0.13333334
    801,   11.6000004,  0.200000003
    802,   11.6000004,  0.266666681
    803,   11.6000004,  0.333333343
    804,   11.3999996, 0.0666666701
    805,   11.3999996,   0.13333334
    806,   11.3999996,  0.200000003
    807,   11.3999996,  0.266666681
    808,   11.3999996,  0.333333343
    809,   11.1999998, 0.0666666701
    810,   11.1999998,   0.13333334
    811,   11.1999998,  0.200000003
    812,   11.1999998,  0.266666681
    813,   11.1999998,  0.333333343
    814,          11., 0.0666666701
    815,          11.,   0.13333334
    816,          11.,  0.200000003
    817,          11.,  0.266666681
    818,          11.,  0.333333343
    819,   10.8000002, 0.0666666701
    820,   10.8000002,   0.13333334
    821,   10.8000002,  0.200000003
    822,   10.8000002,  0.266666681
    823,   10.8000002,  0.333333343
    824,   10.6000004, 0.0666666701
    825,   10.6000004,   0.13333334
    826,   10.6000004,  0.200000003
    827,   10.6000004,  0.266666681
    828,   10.6000004,  0.333333343
    829,   10.3999996, 0.0666666701
    830,   10.3999996,   0.13333334
    831,   10.3999996,  0.200000003
    832,   10.3999996,  0.266666681
    833,   10.3999996,  0.333333343
    834,   10.1999998, 0.0666666701
    835,   10.1999998,   0.13333334
    836,   10.1999998,  0.200000003
    837,   10.1999998,  0.266666681
    838,   10.1999998,  0.333333343
    839,          10., 0.0666666701
    840,          10.,   0.13333334
    841,          10.,  0.200000003
    842,          10.,  0.266666681
    843,          10.,  0.333333343
    844,   9.80000019, 0.0666666701
    845,   9.80000019,   0.13333334
    846,   9.80000019,  0.200000003
    847,   9.80000019,  0.266666681
    848,   9.80000019,  0.333333343
    849,   9.60000038, 0.0666666701
    850,   9.60000038,   0.13333334
    851,   9.60000038,  0.200000003
    852,   9.60000038,  0.266666681
    853,   9.60000038,  0.333333343
    854,   9.39999962, 0.0666666701
    855,   9.39999962,   0.13333334
    856,   9.39999962,  0.200000003
    857,   9.39999962,  0.266666681
    858,   9.39999962,  0.333333343
    859,   9.19999981, 0.0666666701
    860,   9.19999981,   0.13333334
    861,   9.19999981,  0.200000003
    862,   9.19999981,  0.266666681
    863,   9.19999981,  0.333333343
    864,           9., 0.0666666701
    865,           9.,   0.13333334
    866,           9.,  0.200000003
    867,           9.,  0.266666681
    868,           9.,  0.333333343
    869,   8.80000019, 0.0666666701
    870,   8.80000019,   0.13333334
    871,   8.80000019,  0.200000003
    872,   8.80000019,  0.266666681
    873,   8.80000019,  0.333333343
    874,   8.60000038, 0.0666666701
    875,   8.60000038,   0.13333334
    876,   8.60000038,  0.200000003
    877,   8.60000038,  0.266666681
    878,   8.60000038,  0.333333343
    879,   8.39999962, 0.0666666701
    880,   8.39999962,   0.13333334
    881,   8.39999962,  0.200000003
    882,   8.39999962,  0.266666681
    883,   8.39999962,  0.333333343
    884,   8.19999981, 0.0666666701
    885,   8.19999981,   0.13333334
    886,   8.19999981,  0.200000003
    887,   8.19999981,  0.266666681
    888,   8.19999981,  0.333333343
    889,           8., 0.0666666701
    890,           8.,   0.13333334
    891,           8.,  0.200000003
    892,           8.,  0.266666681
    893,           8.,  0.333333343
    894,   7.80000019, 0.0666666701
    895,   7.80000019,   0.13333334
    896,   7.80000019,  0.200000003
    897,   7.80000019,  0.266666681
    898,   7.80000019,  0.333333343
    899,    7.5999999, 0.0666666701
    900,    7.5999999,   0.13333334
    901,    7.5999999,  0.200000003
    902,    7.5999999,  0.266666681
    903,    7.5999999,  0.333333343
    904,    7.4000001, 0.0666666701
    905,    7.4000001,   0.13333334
    906,    7.4000001,  0.200000003
    907,    7.4000001,  0.266666681
    908,    7.4000001,  0.333333343
    909,   7.19999981, 0.0666666701
    910,   7.19999981,   0.13333334
    911,   7.19999981,  0.200000003
    912,   7.19999981,  0.266666681
    913,   7.19999981,  0.333333343
    914,           7., 0.0666666701
    915,           7.,   0.13333334
    916,           7.,  0.200000003
    917,           7.,  0.266666681
    918,           7.,  0.333333343
    919,   6.80000019, 0.0666666701
    920,   6.80000019,   0.13333334
    921,   6.80000019,  0.200000003
    922,   6.80000019,  0.266666681
    923,   6.80000019,  0.333333343
    924,    6.5999999, 0.0666666701
    925,    6.5999999,   0.13333334
    926,    6.5999999,  0.200000003
    927,    6.5999999,  0.266666681
    928,    6.5999999,  0.333333343
    929,    6.4000001, 0.0666666701
    930,    6.4000001,   0.13333334
    931,    6.4000001,  0.200000003
    932,    6.4000001,  0.266666681
    933,    6.4000001,  0.333333343
    934,   6.19999981, 0.0666666701
    935,   6.19999981,   0.13333334
    936,   6.19999981,  0.200000003
    937,   6.19999981,  0.266666681
    938,   6.19999981,  0.333333343
    939,           6., 0.0666666701
    940,           6.,   0.13333334
    941,           6.,  0.200000003
    942,           6.,  0.266666681
    943,           6.,  0.333333343
    944,   5.80000019, 0.0666666701
    945,   5.80000019,   0.13333334
    946,   5.80000019,  0.200000003
    947,   5.80000019,  0.266666681
    948,   5.80000019,  0.333333343
    949,    5.5999999, 0.0666666701
    950,    5.5999999,   0.13333334
    951,    5.5999999,  0.200000003
    952,    5.5999999,  0.266666681
    953,    5.5999999,  0.333333343
    954,    5.4000001, 0.0666666701
    955,    5.4000001,   0.13333334
    956,    5.4000001,  0.200000003
    957,    5.4000001,  0.266666681
    958,    5.4000001,  0.333333343
    959,   5.19999981, 0.0666666701
    960,   5.19999981,   0.13333334
    961,   5.19999981,  0.200000003
    962,   5.19999981,  0.266666681
    963,   5.19999981,  0.333333343
    964,           5., 0.0666666701
    965,           5.,   0.13333334
    966,           5.,  0.200000003
    967,           5.,  0.266666681
    968,           5.,  0.333333343
    969,   4.80000019, 0.0666666701
    970,   4.80000019,   0.13333334
    971,   4.80000019,  0.200000003
    972,   4.80000019,  0.266666681
    973,   4.80000019,  0.333333343
    974,    4.5999999, 0.0666666701
    975,    4.5999999,   0.13333334
    976,    4.5999999,  0.200000003
    977,    4.5999999,  0.266666681
    978,    4.5999999,  0.333333343
    979,    4.4000001, 0.0666666701
    980,    4.4000001,   0.13333334
    981,    4.4000001,  0.200000003
    982,    4.4000001,  0.266666681
    983,    4.4000001,  0.333333343
    984,   4.19999981, 0.0666666701
    985,   4.19999981,   0.13333334
    986,   4.19999981,  0.200000003
    987,   4.19999981,  0.266666681
    988,   4.19999981,  0.333333343
    989,           4., 0.0666666701
    990,           4.,   0.13333334
    991,           4.,  0.200000003
    992,           4.,  0.266666681
    993,           4.,  0.333333343
    994,   3.79999995, 0.0666666701
    995,   3.79999995,   0.13333334
    996,   3.79999995,  0.200000003
    997,   3.79999995,  0.266666681
    998,   3.79999995,  0.333333343
    999,    3.5999999, 0.0666666701
   1000,    3.5999999,   0.13333334
   1001,    3.5999999,  0.200000003
   1002,    3.5999999,  0.266666681
   1003,    3.5999999,  0.333333343
   1004,    3.4000001, 0.0666666701
   1005,    3.4000001,   0.13333334
   1006,    3.4000001,  0.200000003
   1007,    3.4000001,  0.266666681
   1008,    3.4000001,  0.333333343
   1009,   3.20000005, 0.0666666701
   1010,   3.20000005,   0.13333334
   1011,   3.20000005,  0.200000003
   1012,   3.20000005,  0.266666681
   1013,   3.20000005,  0.333333343
   1014,           3., 0.0666666701
   1015,           3.,   0.13333334
   1016,           3.,  0.200000003
   1017,           3.,  0.266666681
   1018,           3.,  0.333333343
   1019,   2.79999995, 0.0666666701
   1020,   2.79999995,   0.13333334
   1021,   2.79999995,  0.200000003
   1022,   2.79999995,  0.266666681
   1023,   2.79999995,  0.333333343
   1024,    2.5999999, 0.0666666701
   1025,    2.5999999,   0.13333334
   1026,    2.5999999,  0.200000003
   1027,    2.5999999,  0.266666681
   1028,    2.5999999,  0.333333343
   1029,    2.4000001, 0.0666666701
   1030,    2.4000001,   0.13333334
   1031,    2.4000001,  0.200000003
   1032,    2.4000001,  0.266666681
   1033,    2.4000001,  0.333333343
   1034,   2.20000005, 0.0666666701
   1035,   2.20000005,   0.13333334
   1036,   2.20000005,  0.200000003
   1037,   2.20000005,  0.266666681
   1038,   2.20000005,  0.333333343
   1039,           2., 0.0666666701
   1040,           2.,   0.13333334
   1041,           2.,  0.200000003
   1042,           2.,  0.266666681
   1043,           2.,  0.333333343
   1044,   1.79999995, 0.0666666701
   1045,   1.79999995,   0.13333334
   1046,   1.79999995,  0.200000003
   1047,   1.79999995,  0.266666681
   1048,   1.79999995,  0.333333343
   1049,   1.60000002, 0.0666666701
   1050,   1.60000002,   0.13333334
   1051,   1.60000002,  0.200000003
   1052,   1.60000002,  0.266666681
   1053,   1.60000002,  0.333333343
   1054,   1.39999998, 0.0666666701
   1055,   1.39999998,   0.13333334
   1056,   1.39999998,  0.200000003
   1057,   1.39999998,  0.266666681
   1058,   1.39999998,  0.333333343
   1059,   1.20000005, 0.0666666701
   1060,   1.20000005,   0.13333334
   1061,   1.20000005,  0.200000003
   1062,   1.20000005,  0.266666681
   1063,   1.20000005,  0.333333343
   1064,           1., 0.0666666701
   1065,           1.,   0.13333334
   1066,           1.,  0.200000003
   1067,           1.,  0.266666681
   1068,           1.,  0.333333343
   1069,  0.800000012, 0.0666666701
   1070,  0.800000012,   0.13333334
   1071,  0.800000012,  0.200000003
   1072,  0.800000012,  0.266666681
   1073,  0.800000012,  0.333333343
   1074,  0.600000024, 0.0666666701
   1075,  0.600000024,   0.13333334
   1076,  0.600000024,  0.200000003
   1077,  0.600000024,  0.266666681
   1078,  0.600000024,  0.333333343
   1079,  0.400000006, 0.0666666701
   1080,  0.400000006,   0.13333334
   1081,  0.400000006,  0.200000003
   1082,  0.400000006,  0.266666681
   1083,  0.400000006,  0.333333343
   1084,  0.200000003, 0.0666666701
   1085,  0.200000003,   0.13333334
   1086,  0.200000003,  0.200000003
   1087,  0.200000003,  0.266666681
   1088,  0.200000003,  0.333333343
   1089,           0., 0.0666666701
   1090,           0.,   0.13333334
   1091,           0.,  0.200000003
   1092,           0.,  0.266666681
   1093,           0.,  0.333333343
   1094, -0.200000003, 0.0666666701
   1095, -0.200000003,   0.13333334
   1096, -0.200000003,  0.200000003
   1097, -0.200000003,  0.266666681
   1098, -0.200000003,  0.333333343
   1099, -0.400000006, 0.0666666701
   1100, -0.400000006,   0.13333334
   1101, -0.400000006,  0.200000003
   1102, -0.400000006,  0.266666681
   1103, -0.400000006,  0.333333343
   1104, -0.600000024, 0.0666666701
   1105, -0.600000024,   0.13333334
   1106, -0.600000024,  0.200000003
   1107, -0.600000024,  0.266666681
   1108, -0.600000024,  0.333333343
   1109, -0.800000012, 0.0666666701
   1110, -0.800000012,   0.13333334
   1111, -0.800000012,  0.200000003
   1112, -0.800000012,  0.266666681
   1113, -0.800000012,  0.333333343
   1114,          -1., 0.0666666701
   1115,          -1.,   0.13333334
   1116,          -1.,  0.200000003
   1117,          -1.,  0.266666681
   1118,          -1.,  0.333333343
   1119,  -1.20000005, 0.0666666701
   1120,  -1.20000005,   0.13333334
   1121,  -1.20000005,  0.200000003
   1122,  -1.20000005,  0.266666681
   1123,  -1.20000005,  0.333333343
   1124,  -1.39999998, 0.0666666701
   1125,  -1.39999998,   0.13333334
   1126,  -1.39999998,  0.200000003
   1127,  -1.39999998,  0.266666681
   1128,  -1.39999998,  0.333333343
   1129,  -1.60000002, 0.0666666701
   1130,  -1.60000002,   0.13333334
   1131,  -1.60000002,  0.200000003
   1132,  -1.60000002,  0.266666681
   1133,  -1.60000002,  0.333333343
   1134,  -1.79999995, 0.0666666701
   1135,  -1.79999995,   0.13333334
   1136,  -1.79999995,  0.200000003
   1137,  -1.79999995,  0.266666681
   1138,  -1.79999995,  0.333333343
   1139,          -2., 0.0666666701
   1140,          -2.,   0.13333334
   1141,          -2.,  0.200000003
   1142,          -2.,  0.266666681
   1143,          -2.,  0.333333343
   1144,  -2.20000005, 0.0666666701
   1145,  -2.20000005,   0.13333334
   1146,  -2.20000005,  0.200000003
   1147,  -2.20000005,  0.266666681
   1148,  -2.20000005,  0.333333343
   1149,   -2.4000001, 0.0666666701
   1150,   -2.4000001,   0.13333334
   1151,   -2.4000001,  0.200000003
   1152,   -2.4000001,  0.266666681
   1153,   -2.4000001,  0.333333343
   1154,   -2.5999999, 0.0666666701
   1155,   -2.5999999,   0.13333334
   1156,   -2.5999999,  0.200000003
   1157,   -2.5999999,  0.266666681
   1158,   -2.5999999,  0.333333343
   1159,  -2.79999995, 0.0666666701
   1160,  -2.79999995,   0.13333334
   1161,  -2.79999995,  0.200000003
   1162,  -2.79999995,  0.266666681
   1163,  -2.79999995,  0.333333343
   1164,          -3., 0.0666666701
   1165,          -3.,   0.13333334
   1166,          -3.,  0.200000003
   1167,          -3.,  0.266666681
   1168,          -3.,  0.333333343
   1169,  -3.20000005, 0.0666666701
   1170,  -3.20000005,   0.13333334
   1171,  -3.20000005,  0.200000003
   1172,  -3.20000005,  0.266666681
   1173,  -3.20000005,  0.333333343
   1174,   -3.4000001, 0.0666666701
   1175,   -3.4000001,   0.13333334
   1176,   -3.4000001,  0.200000003
   1177,   -3.4000001,  0.266666681
   1178,   -3.4000001,  0.333333343
   1179,   -3.5999999, 0.0666666701
   1180,   -3.5999999,   0.13333334
   1181,   -3.5999999,  0.200000003
   1182,   -3.5999999,  0.266666681
   1183,   -3.5999999,  0.333333343
   1184,  -3.79999995, 0.0666666701
   1185,  -3.79999995,   0.13333334
   1186,  -3.79999995,  0.200000003
   1187,  -3.79999995,  0.266666681
   1188,  -3.79999995,  0.333333343
   1189,          -4., 0.0666666701
   1190,          -4.,   0.13333334
   1191,          -4.,  0.200000003
   1192,          -4.,  0.266666681
   1193,          -4.,  0.333333343
   1194,  -4.19999981, 0.0666666701
   1195,  -4.19999981,   0.13333334
   1196,  -4.19999981,  0.200000003
   1197,  -4.19999981,  0.266666681
   1198,  -4.19999981,  0.333333343
   1199,   -4.4000001, 0.0666666701
   1200,   -4.4000001,   0.13333334
   1201,   -4.4000001,  0.200000003
   1202,   -4.4000001,  0.266666681
   1203,   -4.4000001,  0.333333343
   1204,   -4.5999999, 0.0666666701
   1205,   -4.5999999,   0.13333334
   1206,   -4.5999999,  0.200000003
   1207,   -4.5999999,  0.266666681
   1208,   -4.5999999,  0.333333343
   1209,  -4.80000019, 0.0666666701
   1210,  -4.80000019,   0.13333334
   1211,  -4.80000019,  0.200000003
   1212,  -4.80000019,  0.266666681
   1213,  -4.80000019,  0.333333343
   1214,          -5., 0.0666666701
   1215,          -5.,   0.13333334
   1216,          -5.,  0.200000003
   1217,          -5.,  0.266666681
   1218,          -5.,  0.333333343
   1219,  -5.19999981, 0.0666666701
   1220,  -5.19999981,   0.13333334
   1221,  -5.19999981,  0.200000003
   1222,  -5.19999981,  0.266666681
   1223,  -5.19999981,  0.333333343
   1224,   -5.4000001, 0.0666666701
   1225,   -5.4000001,   0.13333334
   1226,   -5.4000001,  0.200000003
   1227,   -5.4000001,  0.266666681
   1228,   -5.4000001,  0.333333343
   1229,   -5.5999999, 0.0666666701
   1230,   -5.5999999,   0.13333334
   1231,   -5.5999999,  0.200000003
   1232,   -5.5999999,  0.266666681
   1233,   -5.5999999,  0.333333343
   1234,  -5.80000019, 0.0666666701
   1235,  -5.80000019,   0.13333334
   1236,  -5.80000019,  0.200000003
   1237,  -5.80000019,  0.266666681
   1238,  -5.80000019,  0.333333343
   1239,          -6., 0.0666666701
   1240,          -6.,   0.13333334
   1241,          -6.,  0.200000003
   1242,          -6.,  0.266666681
   1243,          -6.,  0.333333343
   1244,  -6.19999981, 0.0666666701
   1245,  -6.19999981,   0.13333334
   1246,  -6.19999981,  0.200000003
   1247,  -6.19999981,  0.266666681
   1248,  -6.19999981,  0.333333343
   1249,   -6.4000001, 0.0666666701
   1250,   -6.4000001,   0.13333334
   1251,   -6.4000001,  0.200000003
   1252,   -6.4000001,  0.266666681
   1253,   -6.4000001,  0.333333343
   1254,   -6.5999999, 0.0666666701
   1255,   -6.5999999,   0.13333334
   1256,   -6.5999999,  0.200000003
   1257,   -6.5999999,  0.266666681
   1258,   -6.5999999,  0.333333343
   1259,  -6.80000019, 0.0666666701
   1260,  -6.80000019,   0.13333334
   1261,  -6.80000019,  0.200000003
   1262,  -6.80000019,  0.266666681
   1263,  -6.80000019,  0.333333343
   1264,          -7., 0.0666666701
   1265,          -7.,   0.13333334
   1266,          -7.,  0.200000003
   1267,          -7.,  0.266666681
   1268,          -7.,  0.333333343
   1269,  -7.19999981, 0.0666666701
   1270,  -7.19999981,   0.13333334
   1271,  -7.19999981,  0.200000003
   1272,  -7.19999981,  0.266666681
   1273,  -7.19999981,  0.333333343
   1274,   -7.4000001, 0.0666666701
   1275,   -7.4000001,   0.13333334
   1276,   -7.4000001,  0.200000003
   1277,   -7.4000001,  0.266666681
   1278,   -7.4000001,  0.333333343
   1279,   -7.5999999, 0.0666666701
   1280,   -7.5999999,   0.13333334
   1281,   -7.5999999,  0.200000003
   1282,   -7.5999999,  0.266666681
   1283,   -7.5999999,  0.333333343
   1284,  -7.80000019, 0.0666666701
   1285,  -7.80000019,   0.13333334
   1286,  -7.80000019,  0.200000003
   1287,  -7.80000019,  0.266666681
   1288,  -7.80000019,  0.333333343
   1289,          -8., 0.0666666701
   1290,          -8.,   0.13333334
   1291,          -8.,  0.200000003
   1292,          -8.,  0.266666681
   1293,          -8.,  0.333333343
   1294,  -8.19999981, 0.0666666701
   1295,  -8.19999981,   0.13333334
   1296,  -8.19999981,  0.200000003
   1297,  -8.19999981,  0.266666681
   1298,  -8.19999981,  0.333333343
   1299,  -8.39999962, 0.0666666701
   1300,  -8.39999962,   0.13333334
   1301,  -8.39999962,  0.200000003
   1302,  -8.39999962,  0.266666681
   1303,  -8.39999962,  0.333333343
   1304,  -8.60000038, 0.0666666701
   1305,  -8.60000038,   0.13333334
   1306,  -8.60000038,  0.200000003
   1307,  -8.60000038,  0.266666681
   1308,  -8.60000038,  0.333333343
   1309,  -8.80000019, 0.0666666701
   1310,  -8.80000019,   0.13333334
   1311,  -8.80000019,  0.200000003
   1312,  -8.80000019,  0.266666681
   1313,  -8.80000019,  0.333333343
   1314,          -9., 0.0666666701
   1315,          -9.,   0.13333334
   1316,          -9.,  0.200000003
   1317,          -9.,  0.266666681
   1318,          -9.,  0.333333343
   1319,  -9.19999981, 0.0666666701
   1320,  -9.19999981,   0.13333334
   1321,  -9.19999981,  0.200000003
   1322,  -9.19999981,  0.266666681
   1323,  -9.19999981,  0.333333343
   1324,  -9.39999962, 0.0666666701
   1325,  -9.39999962,   0.13333334
   1326,  -9.39999962,  0.200000003
   1327,  -9.39999962,  0.266666681
   1328,  -9.39999962,  0.333333343
   1329,  -9.60000038, 0.0666666701
   1330,  -9.60000038,   0.13333334
   1331,  -9.60000038,  0.200000003
   1332,  -9.60000038,  0.266666681
   1333,  -9.60000038,  0.333333343
   1334,  -9.80000019, 0.0666666701
   1335,  -9.80000019,   0.13333334
   1336,  -9.80000019,  0.200000003
   1337,  -9.80000019,  0.266666681
   1338,  -9.80000019,  0.333333343
   1339,         -10., 0.0666666701
   1340,         -10.,   0.13333334
   1341,         -10.,  0.200000003
   1342,         -10.,  0.266666681
   1343,         -10.,  0.333333343
   1344,  -10.1999998, 0.0666666701
   1345,  -10.1999998,   0.13333334
   1346,  -10.1999998,  0.200000003
   1347,  -10.1999998,  0.266666681
   1348,  -10.1999998,  0.333333343
   1349,  -10.3999996, 0.0666666701
   1350,  -10.3999996,   0.13333334
   1351,  -10.3999996,  0.200000003
   1352,  -10.3999996,  0.266666681
   1353,  -10.3999996,  0.333333343
   1354,  -10.6000004, 0.0666666701
   1355,  -10.6000004,   0.13333334
   1356,  -10.6000004,  0.200000003
   1357,  -10.6000004,  0.266666681
   1358,  -10.6000004,  0.333333343
   1359,  -10.8000002, 0.0666666701
   1360,  -10.8000002,   0.13333334
   1361,  -10.8000002,  0.200000003
   1362,  -10.8000002,  0.266666681
   1363,  -10.8000002,  0.333333343
   1364,         -11., 0.0666666701
   1365,         -11.,   0.13333334
   1366,         -11.,  0.200000003
   1367,         -11.,  0.266666681
   1368,         -11.,  0.333333343
   1369,  -11.1999998, 0.0666666701
   1370,  -11.1999998,   0.13333334
   1371,  -11.1999998,  0.200000003
   1372,  -11.1999998,  0.266666681
   1373,  -11.1999998,  0.333333343
   1374,  -11.3999996, 0.0666666701
   1375,  -11.3999996,   0.13333334
   1376,  -11.3999996,  0.200000003
   1377,  -11.3999996,  0.266666681
   1378,  -11.3999996,  0.333333343
   1379,  -11.6000004, 0.0666666701
   1380,  -11.6000004,   0.13333334
   1381,  -11.6000004,  0.200000003
   1382,  -11.6000004,  0.266666681
   1383,  -11.6000004,  0.333333343
   1384,  -11.8000002, 0.0666666701
   1385,  -11.8000002,   0.13333334
   1386,  -11.8000002,  0.200000003
   1387,  -11.8000002,  0.266666681
   1388,  -11.8000002,  0.333333343
   1389,         -12., 0.0666666701
   1390,         -12.,   0.13333334
   1391,         -12.,  0.200000003
   1392,         -12.,  0.266666681
   1393,         -12.,  0.333333343
   1394,  -12.1999998, 0.0666666701
   1395,  -12.1999998,   0.13333334
   1396,  -12.1999998,  0.200000003
   1397,  -12.1999998,  0.266666681
   1398,  -12.1999998,  0.333333343
   1399,  -12.3999996, 0.0666666701
   1400,  -12.3999996,   0.13333334
   1401,  -12.3999996,  0.200000003
   1402,  -12.3999996,  0.266666681
   1403,  -12.3999996,  0.333333343
   1404,  -12.6000004, 0.0666666701
   1405,  -12.6000004,   0.13333334
   1406,  -12.6000004,  0.200000003
   1407,  -12.6000004,  0.266666681
   1408,  -12.6000004,  0.333333343
   1409,  -12.8000002, 0.0666666701
   1410,  -12.8000002,   0.13333334
   1411,  -12.8000002,  0.200000003
   1412,  -12.8000002,  0.266666681
   1413,  -12.8000002,  0.333333343
   1414,         -13., 0.0666666701
   1415,         -13.,   0.13333334
   1416,         -13.,  0.200000003
   1417,         -13.,  0.266666681
   1418,         -13.,  0.333333343
   1419,  -13.1999998, 0.0666666701
   1420,  -13.1999998,   0.13333334
   1421,  -13.1999998,  0.200000003
   1422,  -13.1999998,  0.266666681
   1423,  -13.1999998,  0.333333343
   1424,  -13.3999996, 0.0666666701
   1425,  -13.3999996,   0.13333334
   1426,  -13.3999996,  0.200000003
   1427,  -13.3999996,  0.266666681
   1428,  -13.3999996,  0.333333343
   1429,  -13.6000004, 0.0666666701
   1430,  -13.6000004,   0.13333334
   1431,  -13.6000004,  0.200000003
   1432,  -13.6000004,  0.266666681
   1433,  -13.6000004,  0.333333343
   1434,  -13.8000002, 0.0666666701
   1435,  -13.8000002,   0.13333334
   1436,  -13.8000002,  0.200000003
   1437,  -13.8000002,  0.266666681
   1438,  -13.8000002,  0.333333343
   1439,         -14., 0.0666666701
   1440,         -14.,   0.13333334
   1441,         -14.,  0.200000003
   1442,         -14.,  0.266666681
   1443,         -14.,  0.333333343
   1444,  -14.1999998, 0.0666666701
   1445,  -14.1999998,   0.13333334
   1446,  -14.1999998,  0.200000003
   1447,  -14.1999998,  0.266666681
   1448,  -14.1999998,  0.333333343
   1449,  -14.3999996, 0.0666666701
   1450,  -14.3999996,   0.13333334
   1451,  -14.3999996,  0.200000003
   1452,  -14.3999996,  0.266666681
   1453,  -14.3999996,  0.333333343
   1454,  -14.6000004, 0.0666666701
   1455,  -14.6000004,   0.13333334
   1456,  -14.6000004,  0.200000003
   1457,  -14.6000004,  0.266666681
   1458,  -14.6000004,  0.333333343
   1459,  -14.8000002, 0.0666666701
   1460,  -14.8000002,   0.13333334
   1461,  -14.8000002,  0.200000003
   1462,  -14.8000002,  0.266666681
   1463,  -14.8000002,  0.333333343
   1464,         -15., 0.0666666701
   1465,         -15.,   0.13333334
   1466,         -15.,  0.200000003
   1467,         -15.,  0.266666681
   1468,         -15.,  0.333333343
   1469,  -15.1999998, 0.0666666701
   1470,  -15.1999998,   0.13333334
   1471,  -15.1999998,  0.200000003
   1472,  -15.1999998,  0.266666681
   1473,  -15.1999998,  0.333333343
   1474,  -15.3999996, 0.0666666701
   1475,  -15.3999996,   0.13333334
   1476,  -15.3999996,  0.200000003
   1477,  -15.3999996,  0.266666681
   1478,  -15.3999996,  0.333333343
   1479,  -15.6000004, 0.0666666701
   1480,  -15.6000004,   0.13333334
   1481,  -15.6000004,  0.200000003
   1482,  -15.6000004,  0.266666681
   1483,  -15.6000004,  0.333333343
   1484,  -15.8000002, 0.0666666701
   1485,  -15.8000002,   0.13333334
   1486,  -15.8000002,  0.200000003
   1487,  -15.8000002,  0.266666681
   1488,  -15.8000002,  0.333333343
   1489,         -16., 0.0666666701
   1490,         -16.,   0.13333334
   1491,         -16.,  0.200000003
   1492,         -16.,  0.266666681
   1493,         -16.,  0.333333343
   1494,  -16.2000008, 0.0666666701
   1495,  -16.2000008,   0.13333334
   1496,  -16.2000008,  0.200000003
   1497,  -16.2000008,  0.266666681
   1498,  -16.2000008,  0.333333343
   1499,  -16.3999996, 0.0666666701
   1500,  -16.3999996,   0.13333334
   1501,  -16.3999996,  0.200000003
   1502,  -16.3999996,  0.266666681
   1503,  -16.3999996,  0.333333343
   1504,  -16.6000004, 0.0666666701
   1505,  -16.6000004,   0.13333334
   1506,  -16.6000004,  0.200000003
   1507,  -16.6000004,  0.266666681
   1508,  -16.6000004,  0.333333343
   1509,  -16.7999992, 0.0666666701
   1510,  -16.7999992,   0.13333334
   1511,  -16.7999992,  0.200000003
   1512,  -16.7999992,  0.266666681
   1513,  -16.7999992,  0.333333343
   1514,         -17., 0.0666666701
   1515,         -17.,   0.13333334
   1516,         -17.,  0.200000003
   1517,         -17.,  0.266666681
   1518,         -17.,  0.333333343
   1519,  -17.2000008, 0.0666666701
   1520,  -17.2000008,   0.13333334
   1521,  -17.2000008,  0.200000003
   1522,  -17.2000008,  0.266666681
   1523,  -17.2000008,  0.333333343
   1524,  -17.3999996, 0.0666666701
   1525,  -17.3999996,   0.13333334
   1526,  -17.3999996,  0.200000003
   1527,  -17.3999996,  0.266666681
   1528,  -17.3999996,  0.333333343
   1529,  -17.6000004, 0.0666666701
   1530,  -17.6000004,   0.13333334
   1531,  -17.6000004,  0.200000003
   1532,  -17.6000004,  0.266666681
   1533,  -17.6000004,  0.333333343
   1534,  -17.7999992, 0.0666666701
   1535,  -17.7999992,   0.13333334
   1536,  -17.7999992,  0.200000003
   1537,  -17.7999992,  0.266666681
   1538,  -17.7999992,  0.333333343
   1539,         -18., 0.0666666701
   1540,         -18.,   0.13333334
   1541,         -18.,  0.200000003
   1542,         -18.,  0.266666681
   1543,         -18.,  0.333333343
   1544,  -18.2000008, 0.0666666701
   1545,  -18.2000008,   0.13333334
   1546,  -18.2000008,  0.200000003
   1547,  -18.2000008,  0.266666681
   1548,  -18.2000008,  0.333333343
   1549,  -18.3999996, 0.0666666701
   1550,  -18.3999996,   0.13333334
   1551,  -18.3999996,  0.200000003
   1552,  -18.3999996,  0.266666681
   1553,  -18.3999996,  0.333333343
   1554,  -18.6000004, 0.0666666701
   1555,  -18.6000004,   0.13333334
   1556,  -18.6000004,  0.200000003
   1557,  -18.6000004,  0.266666681
   1558,  -18.6000004,  0.333333343
   1559,  -18.7999992, 0.0666666701
   1560,  -18.7999992,   0.13333334
   1561,  -18.7999992,  0.200000003
   1562,  -18.7999992,  0.266666681
   1563,  -18.7999992,  0.333333343
   1564,         -19., 0.0666666701
   1565,         -19.,   0.13333334
   1566,         -19.,  0.200000003
   1567,         -19.,  0.266666681
   1568,         -19.,  0.333333343
   1569,  -19.2000008, 0.0666666701
   1570,  -19.2000008,   0.13333334
   1571,  -19.2000008,  0.200000003
   1572,  -19.2000008,  0.266666681
   1573,  -19.2000008,  0.333333343
   1574,  -19.3999996, 0.0666666701
   1575,  -19.3999996,   0.13333334
   1576,  -19.3999996,  0.200000003
   1577,  -19.3999996,  0.266666681
   1578,  -19.3999996,  0.333333343
   1579,  -19.6000004, 0.0666666701
   1580,  -19.6000004,   0.13333334
   1581,  -19.6000004,  0.200000003
   1582,  -19.6000004,  0.266666681
   1583,  -19.6000004,  0.333333343
   1584,  -19.7999992, 0.0666666701
   1585,  -19.7999992,   0.13333334
   1586,  -19.7999992,  0.200000003
   1587,  -19.7999992,  0.266666681
   1588,  -19.7999992,  0.333333343
   1589,         -20., 0.0666666701
   1590,         -20.,   0.13333334
   1591,         -20.,  0.200000003
   1592,         -20.,  0.266666681
   1593,         -20.,  0.333333343
   1594,  -20.2000008, 0.0666666701
   1595,  -20.2000008,   0.13333334
   1596,  -20.2000008,  0.200000003
   1597,  -20.2000008,  0.266666681
   1598,  -20.2000008,  0.333333343
   1599,  -20.3999996, 0.0666666701
   1600,  -20.3999996,   0.13333334
   1601,  -20.3999996,  0.200000003
   1602,  -20.3999996,  0.266666681
   1603,  -20.3999996,  0.333333343
   1604,  -20.6000004, 0.0666666701
   1605,  -20.6000004,   0.13333334
   1606,  -20.6000004,  0.200000003
   1607,  -20.6000004,  0.266666681
   1608,  -20.6000004,  0.333333343
   1609,  -20.7999992, 0.0666666701
   1610,  -20.7999992,   0.13333334
   1611,  -20.7999992,  0.200000003
   1612,  -20.7999992,  0.266666681
   1613,  -20.7999992,  0.333333343
   1614,         -21., 0.0666666701
   1615,         -21.,   0.13333334
   1616,         -21.,  0.200000003
   1617,         -21.,  0.266666681
   1618,         -21.,  0.333333343
   1619,  -21.2000008, 0.0666666701
   1620,  -21.2000008,   0.13333334
   1621,  -21.2000008,  0.200000003
   1622,  -21.2000008,  0.266666681
   1623,  -21.2000008,  0.333333343
   1624,  -21.3999996, 0.0666666701
   1625,  -21.3999996,   0.13333334
   1626,  -21.3999996,  0.200000003
   1627,  -21.3999996,  0.266666681
   1628,  -21.3999996,  0.333333343
   1629,  -21.6000004, 0.0666666701
   1630,  -21.6000004,   0.13333334
   1631,  -21.6000004,  0.200000003
   1632,  -21.6000004,  0.266666681
   1633,  -21.6000004,  0.333333343
   1634,  -21.7999992, 0.0666666701
   1635,  -21.7999992,   0.13333334
   1636,  -21.7999992,  0.200000003
   1637,  -21.7999992,  0.266666681
   1638,  -21.7999992,  0.333333343
   1639,         -22., 0.0666666701
   1640,         -22.,   0.13333334
   1641,         -22.,  0.200000003
   1642,         -22.,  0.266666681
   1643,         -22.,  0.333333343
   1644,  -22.2000008, 0.0666666701
   1645,  -22.2000008,   0.13333334
   1646,  -22.2000008,  0.200000003
   1647,  -22.2000008,  0.266666681
   1648,  -22.2000008,  0.333333343
   1649,  -22.3999996, 0.0666666701
   1650,  -22.3999996,   0.13333334
   1651,  -22.3999996,  0.200000003
   1652,  -22.3999996,  0.266666681
   1653,  -22.3999996,  0.333333343
   1654,  -22.6000004, 0.0666666701
   1655,  -22.6000004,   0.13333334
   1656,  -22.6000004,  0.200000003
   1657,  -22.6000004,  0.266666681
   1658,  -22.6000004,  0.333333343
   1659,  -22.7999992, 0.0666666701
   1660,  -22.7999992,   0.13333334
   1661,  -22.7999992,  0.200000003
   1662,  -22.7999992,  0.266666681
   1663,  -22.7999992,  0.333333343
   1664,         -23., 0.0666666701
   1665,         -23.,   0.13333334
   1666,         -23.,  0.200000003
   1667,         -23.,  0.266666681
   1668,         -23.,  0.333333343
   1669,  -23.2000008, 0.0666666701
   1670,  -23.2000008,   0.13333334
   1671,  -23.2000008,  0.200000003
   1672,  -23.2000008,  0.266666681
   1673,  -23.2000008,  0.333333343
   1674,  -23.3999996, 0.0666666701
   1675,  -23.3999996,   0.13333334
   1676,  -23.3999996,  0.200000003
   1677,  -23.3999996,  0.266666681
   1678,  -23.3999996,  0.333333343
   1679,  -23.6000004, 0.0666666701
   1680,  -23.6000004,   0.13333334
   1681,  -23.6000004,  0.200000003
   1682,  -23.6000004,  0.266666681
   1683,  -23.6000004,  0.333333343
   1684,  -23.7999992, 0.0666666701
   1685,  -23.7999992,   0.13333334
   1686,  -23.7999992,  0.200000003
   1687,  -23.7999992,  0.266666681
   1688,  -23.7999992,  0.333333343
   1689,         -24., 0.0666666701
   1690,         -24.,   0.13333334
   1691,         -24.,  0.200000003
   1692,         -24.,  0.266666681
   1693,         -24.,  0.333333343
   1694,  -24.2000008, 0.0666666701
   1695,  -24.2000008,   0.13333334
   1696,  -24.2000008,  0.200000003
   1697,  -24.2000008,  0.266666681
   1698,  -24.2000008,  0.333333343
   1699,  -24.3999996, 0.0666666701
   1700,  -24.3999996,   0.13333334
   1701,  -24.3999996,  0.200000003
   1702,  -24.3999996,  0.266666681
   1703,  -24.3999996,  0.333333343
   1704,  -24.6000004, 0.0666666701
   1705,  -24.6000004,   0.13333334
   1706,  -24.6000004,  0.200000003
   1707,  -24.6000004,  0.266666681
   1708,  -24.6000004,  0.333333343
   1709,  -24.7999992, 0.0666666701
   1710,  -24.7999992,   0.13333334
   1711,  -24.7999992,  0.200000003
   1712,  -24.7999992,  0.266666681
   1713,  -24.7999992,  0.333333343
   1714,         -25., 0.0666666701
   1715,         -25.,   0.13333334
   1716,         -25.,  0.200000003
   1717,         -25.,  0.266666681
   1718,         -25.,  0.333333343
   1719,  -25.2000008, 0.0666666701
   1720,  -25.2000008,   0.13333334
   1721,  -25.2000008,  0.200000003
   1722,  -25.2000008,  0.266666681
   1723,  -25.2000008,  0.333333343
   1724,  -25.3999996, 0.0666666701
   1725,  -25.3999996,   0.13333334
   1726,  -25.3999996,  0.200000003
   1727,  -25.3999996,  0.266666681
   1728,  -25.3999996,  0.333333343
   1729,  -25.6000004, 0.0666666701
   1730,  -25.6000004,   0.13333334
   1731,  -25.6000004,  0.200000003
   1732,  -25.6000004,  0.266666681
   1733,  -25.6000004,  0.333333343
   1734,  -25.7999992, 0.0666666701
   1735,  -25.7999992,   0.13333334
   1736,  -25.7999992,  0.200000003
   1737,  -25.7999992,  0.266666681
   1738,  -25.7999992,  0.333333343
   1739,         -26., 0.0666666701
   1740,         -26.,   0.13333334
   1741,         -26.,  0.200000003
   1742,         -26.,  0.266666681
   1743,         -26.,  0.333333343
   1744,  -26.2000008, 0.0666666701
   1745,  -26.2000008,   0.13333334
   1746,  -26.2000008,  0.200000003
   1747,  -26.2000008,  0.266666681
   1748,  -26.2000008,  0.333333343
   1749,  -26.3999996, 0.0666666701
   1750,  -26.3999996,   0.13333334
   1751,  -26.3999996,  0.200000003
   1752,  -26.3999996,  0.266666681
   1753,  -26.3999996,  0.333333343
   1754,  -26.6000004, 0.0666666701
   1755,  -26.6000004,   0.13333334
   1756,  -26.6000004,  0.200000003
   1757,  -26.6000004,  0.266666681
   1758,  -26.6000004,  0.333333343
   1759,  -26.7999992, 0.0666666701
   1760,  -26.7999992,   0.13333334
   1761,  -26.7999992,  0.200000003
   1762,  -26.7999992,  0.266666681
   1763,  -26.7999992,  0.333333343
   1764,         -27., 0.0666666701
   1765,         -27.,   0.13333334
   1766,         -27.,  0.200000003
   1767,         -27.,  0.266666681
   1768,         -27.,  0.333333343
   1769,  -27.2000008, 0.0666666701
   1770,  -27.2000008,   0.13333334
   1771,  -27.2000008,  0.200000003
   1772,  -27.2000008,  0.266666681
   1773,  -27.2000008,  0.333333343
   1774,  -27.3999996, 0.0666666701
   1775,  -27.3999996,   0.13333334
   1776,  -27.3999996,  0.200000003
   1777,  -27.3999996,  0.266666681
   1778,  -27.3999996,  0.333333343
   1779,  -27.6000004, 0.0666666701
   1780,  -27.6000004,   0.13333334
   1781,  -27.6000004,  0.200000003
   1782,  -27.6000004,  0.266666681
   1783,  -27.6000004,  0.333333343
   1784,  -27.7999992, 0.0666666701
   1785,  -27.7999992,   0.13333334
   1786,  -27.7999992,  0.200000003
   1787,  -27.7999992,  0.266666681
   1788,  -27.7999992,  0.333333343
   1789,         -28., 0.0666666701
   1790,         -28.,   0.13333334
   1791,         -28.,  0.200000003
   1792,         -28.,  0.266666681
   1793,         -28.,  0.333333343
   1794,  -28.2000008, 0.0666666701
   1795,  -28.2000008,   0.13333334
   1796,  -28.2000008,  0.200000003
   1797,  -28.2000008,  0.266666681
   1798,  -28.2000008,  0.333333343
   1799,  -28.3999996, 0.0666666701
   1800,  -28.3999996,   0.13333334
   1801,  -28.3999996,  0.200000003
   1802,  -28.3999996,  0.266666681
   1803,  -28.3999996,  0.333333343
   1804,  -28.6000004, 0.0666666701
   1805,  -28.6000004,   0.13333334
   1806,  -28.6000004,  0.200000003
   1807,  -28.6000004,  0.266666681
   1808,  -28.6000004,  0.333333343
   1809,  -28.7999992, 0.0666666701
   1810,  -28.7999992,   0.13333334
   1811,  -28.7999992,  0.200000003
   1812,  -28.7999992,  0.266666681
   1813,  -28.7999992,  0.333333343
   1814,         -29., 0.0666666701
   1815,         -29.,   0.13333334
   1816,         -29.,  0.200000003
   1817,         -29.,  0.266666681
   1818,         -29.,  0.333333343
   1819,  -29.2000008, 0.0666666701
   1820,  -29.2000008,   0.13333334
   1821,  -29.2000008,  0.200000003
   1822,  -29.2000008,  0.266666681
   1823,  -29.2000008,  0.333333343
   1824,  -29.3999996, 0.0666666701
   1825,  -29.3999996,   0.13333334
   1826,  -29.3999996,  0.200000003
   1827,  -29.3999996,  0.266666681
   1828,  -29.3999996,  0.333333343
   1829,  -29.6000004, 0.0666666701
   1830,  -29.6000004,   0.13333334
   1831,  -29.6000004,  0.200000003
   1832,  -29.6000004,  0.266666681
   1833,  -29.6000004,  0.333333343
   1834,  -29.7999992, 0.0666666701
   1835,  -29.7999992,   0.13333334
   1836,  -29.7999992,  0.200000003
   1837,  -29.7999992,  0.266666681
   1838,  -29.7999992,  0.333333343
   1839,         -30., 0.0666666701
   1840,         -30.,   0.13333334
   1841,         -30.,  0.200000003
   1842,         -30.,  0.266666681
   1843,         -30.,  0.333333343
   1844,  -30.2000008, 0.0666666701
   1845,  -30.2000008,   0.13333334
   1846,  -30.2000008,  0.200000003
   1847,  -30.2000008,  0.266666681
   1848,  -30.2000008,  0.333333343
   1849,  -30.3999996, 0.0666666701
   1850,  -30.3999996,   0.13333334
   1851,  -30.3999996,  0.200000003
   1852,  -30.3999996,  0.266666681
   1853,  -30.3999996,  0.333333343
   1854,  -30.6000004, 0.0666666701
   1855,  -30.6000004,   0.13333334
   1856,  -30.6000004,  0.200000003
   1857,  -30.6000004,  0.266666681
   1858,  -30.6000004,  0.333333343
   1859,  -30.7999992, 0.0666666701
   1860,  -30.7999992,   0.13333334
   1861,  -30.7999992,  0.200000003
   1862,  -30.7999992,  0.266666681
   1863,  -30.7999992,  0.333333343
   1864,         -31., 0.0666666701
   1865,         -31.,   0.13333334
   1866,         -31.,  0.200000003
   1867,         -31.,  0.266666681
   1868,         -31.,  0.333333343
   1869,  -31.2000008, 0.0666666701
   1870,  -31.2000008,   0.13333334
   1871,  -31.2000008,  0.200000003
   1872,  -31.2000008,  0.266666681
   1873,  -31.2000008,  0.333333343
   1874,  -31.3999996, 0.0666666701
   1875,  -31.3999996,   0.13333334
   1876,  -31.3999996,  0.200000003
   1877,  -31.3999996,  0.266666681
   1878,  -31.3999996,  0.333333343
   1879,  -31.6000004, 0.0666666701
   1880,  -31.6000004,   0.13333334
   1881,  -31.6000004,  0.200000003
   1882,  -31.6000004,  0.266666681
   1883,  -31.6000004,  0.333333343
   1884,  -31.7999992, 0.0666666701
   1885,  -31.7999992,   0.13333334
   1886,  -31.7999992,  0.200000003
   1887,  -31.7999992,  0.266666681
   1888,  -31.7999992,  0.333333343
   1889,         -32., 0.0666666701
   1890,         -32.,   0.13333334
   1891,         -32.,  0.200000003
   1892,         -32.,  0.266666681
   1893,         -32.,  0.333333343
   1894,  -32.2000008, 0.0666666701
   1895,  -32.2000008,   0.13333334
   1896,  -32.2000008,  0.200000003
   1897,  -32.2000008,  0.266666681
   1898,  -32.2000008,  0.333333343
   1899,  -32.4000015, 0.0666666701
   1900,  -32.4000015,   0.13333334
   1901,  -32.4000015,  0.200000003
   1902,  -32.4000015,  0.266666681
   1903,  -32.4000015,  0.333333343
   1904,  -32.5999985, 0.0666666701
   1905,  -32.5999985,   0.13333334
   1906,  -32.5999985,  0.200000003
   1907,  -32.5999985,  0.266666681
   1908,  -32.5999985,  0.333333343
   1909,  -32.7999992, 0.0666666701
   1910,  -32.7999992,   0.13333334
   1911,  -32.7999992,  0.200000003
   1912,  -32.7999992,  0.266666681
   1913,  -32.7999992,  0.333333343
   1914,         -33., 0.0666666701
   1915,         -33.,   0.13333334
   1916,         -33.,  0.200000003
   1917,         -33.,  0.266666681
   1918,         -33.,  0.333333343
   1919,  -33.2000008, 0.0666666701
   1920,  -33.2000008,   0.13333334
   1921,  -33.2000008,  0.200000003
   1922,  -33.2000008,  0.266666681
   1923,  -33.2000008,  0.333333343
   1924,  -33.4000015, 0.0666666701
   1925,  -33.4000015,   0.13333334
   1926,  -33.4000015,  0.200000003
   1927,  -33.4000015,  0.266666681
   1928,  -33.4000015,  0.333333343
   1929,  -33.5999985, 0.0666666701
   1930,  -33.5999985,   0.13333334
   1931,  -33.5999985,  0.200000003
   1932,  -33.5999985,  0.266666681
   1933,  -33.5999985,  0.333333343
   1934,  -33.7999992, 0.0666666701
   1935,  -33.7999992,   0.13333334
   1936,  -33.7999992,  0.200000003
   1937,  -33.7999992,  0.266666681
   1938,  -33.7999992,  0.333333343
   1939,         -34., 0.0666666701
   1940,         -34.,   0.13333334
   1941,         -34.,  0.200000003
   1942,         -34.,  0.266666681
   1943,         -34.,  0.333333343
   1944,  -34.2000008, 0.0666666701
   1945,  -34.2000008,   0.13333334
   1946,  -34.2000008,  0.200000003
   1947,  -34.2000008,  0.266666681
   1948,  -34.2000008,  0.333333343
   1949,  -34.4000015, 0.0666666701
   1950,  -34.4000015,   0.13333334
   1951,  -34.4000015,  0.200000003
   1952,  -34.4000015,  0.266666681
   1953,  -34.4000015,  0.333333343
   1954,  -34.5999985, 0.0666666701
   1955,  -34.5999985,   0.13333334
   1956,  -34.5999985,  0.200000003
   1957,  -34.5999985,  0.266666681
   1958,  -34.5999985,  0.333333343
   1959,  -34.7999992, 0.0666666701
   1960,  -34.7999992,   0.13333334
   1961,  -34.7999992,  0.200000003
   1962,  -34.7999992,  0.266666681
   1963,  -34.7999992,  0.333333343
   1964,         -35., 0.0666666701
   1965,         -35.,   0.13333334
   1966,         -35.,  0.200000003
   1967,         -35.,  0.266666681
   1968,         -35.,  0.333333343
   1969,  -35.2000008, 0.0666666701
   1970,  -35.2000008,   0.13333334
   1971,  -35.2000008,  0.200000003
   1972,  -35.2000008,  0.266666681
   1973,  -35.2000008,  0.333333343
   1974,  -35.4000015, 0.0666666701
   1975,  -35.4000015,   0.13333334
   1976,  -35.4000015,  0.200000003
   1977,  -35.4000015,  0.266666681
   1978,  -35.4000015,  0.333333343
   1979,  -35.5999985, 0.0666666701
   1980,  -35.5999985,   0.13333334
   1981,  -35.5999985,  0.200000003
   1982,  -35.5999985,  0.266666681
   1983,  -35.5999985,  0.333333343
   1984,  -35.7999992, 0.0666666701
   1985,  -35.7999992,   0.13333334
   1986,  -35.7999992,  0.200000003
   1987,  -35.7999992,  0.266666681
   1988,  -35.7999992,  0.333333343
*Element, type=CPE4R
  1,   1,  11, 589,  45
  2,  11,  12, 590, 589
  3,  12,  13, 591, 590
  4,  13,  14, 592, 591
  5,  14,  15, 593, 592
  6,  15,   2,  16, 593
  7,  45, 589, 594,   4
  8, 589, 590, 595, 594
  9, 590, 591, 596, 595
 10, 591, 592, 597, 596
 11, 592, 593, 598, 597
 12, 593,  16,  17, 598
 13,   4, 594, 599,  67
 14, 594, 595, 600, 599
 15, 595, 596, 601, 600
 16, 596, 597, 602, 601
 17, 597, 598, 603, 602
 18, 598,  17,  18, 603
 19,  67, 599, 604,  66
 20, 599, 600, 605, 604
 21, 600, 601, 606, 605
 22, 601, 602, 607, 606
 23, 602, 603, 608, 607
 24, 603,  18,  19, 608
 25,  66, 604, 609,  65
 26, 604, 605, 610, 609
 27, 605, 606, 611, 610
 28, 606, 607, 612, 611
 29, 607, 608, 613, 612
 30, 608,  19,  20, 613
 31,  65, 609, 614,  64
 32, 609, 610, 615, 614
 33, 610, 611, 616, 615
 34, 611, 612, 617, 616
 35, 612, 613, 618, 617
 36, 613,  20,  21, 618
 37,  64, 614, 619,  63
 38, 614, 615, 620, 619
 39, 615, 616, 621, 620
 40, 616, 617, 622, 621
 41, 617, 618, 623, 622
 42, 618,  21,  22, 623
 43,  63, 619, 624,  62
 44, 619, 620, 625, 624
 45, 620, 621, 626, 625
 46, 621, 622, 627, 626
 47, 622, 623, 628, 627
 48, 623,  22,  23, 628
 49,  62, 624, 629,  61
 50, 624, 625, 630, 629
 51, 625, 626, 631, 630
 52, 626, 627, 632, 631
 53, 627, 628, 633, 632
 54, 628,  23,  24, 633
 55,  61, 629, 634,  60
 56, 629, 630, 635, 634
 57, 630, 631, 636, 635
 58, 631, 632, 637, 636
 59, 632, 633, 638, 637
 60, 633,  24,  25, 638
 61,  60, 634, 639,  59
 62, 634, 635, 640, 639
 63, 635, 636, 641, 640
 64, 636, 637, 642, 641
 65, 637, 638, 643, 642
 66, 638,  25,  26, 643
 67,  59, 639, 644,  58
 68, 639, 640, 645, 644
 69, 640, 641, 646, 645
 70, 641, 642, 647, 646
 71, 642, 643, 648, 647
 72, 643,  26,  27, 648
 73,  58, 644, 649,  57
 74, 644, 645, 650, 649
 75, 645, 646, 651, 650
 76, 646, 647, 652, 651
 77, 647, 648, 653, 652
 78, 648,  27,  28, 653
 79,  57, 649, 654,  56
 80, 649, 650, 655, 654
 81, 650, 651, 656, 655
 82, 651, 652, 657, 656
 83, 652, 653, 658, 657
 84, 653,  28,  29, 658
 85,  56, 654, 659,  55
 86, 654, 655, 660, 659
 87, 655, 656, 661, 660
 88, 656, 657, 662, 661
 89, 657, 658, 663, 662
 90, 658,  29,  30, 663
 91,  55, 659, 664,  54
 92, 659, 660, 665, 664
 93, 660, 661, 666, 665
 94, 661, 662, 667, 666
 95, 662, 663, 668, 667
 96, 663,  30,  31, 668
 97,  54, 664, 669,  53
 98, 664, 665, 670, 669
 99, 665, 666, 671, 670
100, 666, 667, 672, 671
101, 667, 668, 673, 672
102, 668,  31,  32, 673
103,  53, 669, 674,  52
104, 669, 670, 675, 674
105, 670, 671, 676, 675
106, 671, 672, 677, 676
107, 672, 673, 678, 677
108, 673,  32,  33, 678
109,  52, 674, 679,  51
110, 674, 675, 680, 679
111, 675, 676, 681, 680
112, 676, 677, 682, 681
113, 677, 678, 683, 682
114, 678,  33,  34, 683
115,  51, 679, 684,  50
116, 679, 680, 685, 684
117, 680, 681, 686, 685
118, 681, 682, 687, 686
119, 682, 683, 688, 687
120, 683,  34,  35, 688
121,  50, 684, 689,  49
122, 684, 685, 690, 689
123, 685, 686, 691, 690
124, 686, 687, 692, 691
125, 687, 688, 693, 692
126, 688,  35,  36, 693
127,  49, 689, 694,  48
128, 689, 690, 695, 694
129, 690, 691, 696, 695
130, 691, 692, 697, 696
131, 692, 693, 698, 697
132, 693,  36,  37, 698
133,  48, 694, 699,  47
134, 694, 695, 700, 699
135, 695, 696, 701, 700
136, 696, 697, 702, 701
137, 697, 698, 703, 702
138, 698,  37,  38, 703
139,  47, 699, 704,  46
140, 699, 700, 705, 704
141, 700, 701, 706, 705
142, 701, 702, 707, 706
143, 702, 703, 708, 707
144, 703,  38,  39, 708
145,  46, 704,  44,   5
146, 704, 705,  43,  44
147, 705, 706,  42,  43
148, 706, 707,  41,  42
149, 707, 708,  40,  41
150, 708,  39,   3,  40
151,   6,  68, 709,  86
152,  68,  69, 710, 709
153,  69,  70, 711, 710
154,  70,  71, 712, 711
155,  71,  72, 713, 712
156,  72,   7,  73, 713
157,  86, 709, 714,  85
158, 709, 710, 715, 714
159, 710, 711, 716, 715
160, 711, 712, 717, 716
161, 712, 713, 718, 717
162, 713,  73,  74, 718
163,  85, 714, 719,  84
164, 714, 715, 720, 719
165, 715, 716, 721, 720
166, 716, 717, 722, 721
167, 717, 718, 723, 722
168, 718,  74,  75, 723
169,  84, 719, 724,  83
170, 719, 720, 725, 724
171, 720, 721, 726, 725
172, 721, 722, 727, 726
173, 722, 723, 728, 727
174, 723,  75,  76, 728
175,  83, 724, 729,  82
176, 724, 725, 730, 729
177, 725, 726, 731, 730
178, 726, 727, 732, 731
179, 727, 728, 733, 732
180, 728,  76,  77, 733
181,  82, 729, 734,  81
182, 729, 730, 735, 734
183, 730, 731, 736, 735
184, 731, 732, 737, 736
185, 732, 733, 738, 737
186, 733,  77,  78, 738
187,  81, 734, 739,  80
188, 734, 735, 740, 739
189, 735, 736, 741, 740
190, 736, 737, 742, 741
191, 737, 738, 743, 742
192, 738,  78,  79, 743
193,  80, 739,  11,   1
194, 739, 740,  12,  11
195, 740, 741,  13,  12
196, 741, 742,  14,  13
197, 742, 743,  15,  14
198, 743,  79,   2,  15
 199,    7,   72,  744,  588
 200,   72,   71,  745,  744
 201,   71,   70,  746,  745
 202,   70,   69,  747,  746
 203,   69,   68,  748,  747
 204,   68,    6,   87,  748
 205,  588,  744,  749,  587
 206,  744,  745,  750,  749
 207,  745,  746,  751,  750
 208,  746,  747,  752,  751
 209,  747,  748,  753,  752
 210,  748,   87,    8,  753
 211,  587,  749,  754,  586
 212,  749,  750,  755,  754
 213,  750,  751,  756,  755
 214,  751,  752,  757,  756
 215,  752,  753,  758,  757
 216,  753,    8,   88,  758
 217,  586,  754,  759,  585
 218,  754,  755,  760,  759
 219,  755,  756,  761,  760
 220,  756,  757,  762,  761
 221,  757,  758,  763,  762
 222,  758,   88,   89,  763
 223,  585,  759,  764,  584
 224,  759,  760,  765,  764
 225,  760,  761,  766,  765
 226,  761,  762,  767,  766
 227,  762,  763,  768,  767
 228,  763,   89,   90,  768
 229,  584,  764,  769,  583
 230,  764,  765,  770,  769
 231,  765,  766,  771,  770
 232,  766,  767,  772,  771
 233,  767,  768,  773,  772
 234,  768,   90,   91,  773
 235,  583,  769,  774,  582
 236,  769,  770,  775,  774
 237,  770,  771,  776,  775
 238,  771,  772,  777,  776
 239,  772,  773,  778,  777
 240,  773,   91,   92,  778
 241,  582,  774,  779,  581
 242,  774,  775,  780,  779
 243,  775,  776,  781,  780
 244,  776,  777,  782,  781
 245,  777,  778,  783,  782
 246,  778,   92,   93,  783
 247,  581,  779,  784,  580
 248,  779,  780,  785,  784
 249,  780,  781,  786,  785
 250,  781,  782,  787,  786
 251,  782,  783,  788,  787
 252,  783,   93,   94,  788
 253,  580,  784,  789,  579
 254,  784,  785,  790,  789
 255,  785,  786,  791,  790
 256,  786,  787,  792,  791
 257,  787,  788,  793,  792
 258,  788,   94,   95,  793
 259,  579,  789,  794,  578
 260,  789,  790,  795,  794
 261,  790,  791,  796,  795
 262,  791,  792,  797,  796
 263,  792,  793,  798,  797
 264,  793,   95,   96,  798
 265,  578,  794,  799,  577
 266,  794,  795,  800,  799
 267,  795,  796,  801,  800
 268,  796,  797,  802,  801
 269,  797,  798,  803,  802
 270,  798,   96,   97,  803
 271,  577,  799,  804,  576
 272,  799,  800,  805,  804
 273,  800,  801,  806,  805
 274,  801,  802,  807,  806
 275,  802,  803,  808,  807
 276,  803,   97,   98,  808
 277,  576,  804,  809,  575
 278,  804,  805,  810,  809
 279,  805,  806,  811,  810
 280,  806,  807,  812,  811
 281,  807,  808,  813,  812
 282,  808,   98,   99,  813
 283,  575,  809,  814,  574
 284,  809,  810,  815,  814
 285,  810,  811,  816,  815
 286,  811,  812,  817,  816
 287,  812,  813,  818,  817
 288,  813,   99,  100,  818
 289,  574,  814,  819,  573
 290,  814,  815,  820,  819
 291,  815,  816,  821,  820
 292,  816,  817,  822,  821
 293,  817,  818,  823,  822
 294,  818,  100,  101,  823
 295,  573,  819,  824,  572
 296,  819,  820,  825,  824
 297,  820,  821,  826,  825
 298,  821,  822,  827,  826
 299,  822,  823,  828,  827
 300,  823,  101,  102,  828
 301,  572,  824,  829,  571
 302,  824,  825,  830,  829
 303,  825,  826,  831,  830
 304,  826,  827,  832,  831
 305,  827,  828,  833,  832
 306,  828,  102,  103,  833
 307,  571,  829,  834,  570
 308,  829,  830,  835,  834
 309,  830,  831,  836,  835
 310,  831,  832,  837,  836
 311,  832,  833,  838,  837
 312,  833,  103,  104,  838
 313,  570,  834,  839,  569
 314,  834,  835,  840,  839
 315,  835,  836,  841,  840
 316,  836,  837,  842,  841
 317,  837,  838,  843,  842
 318,  838,  104,  105,  843
 319,  569,  839,  844,  568
 320,  839,  840,  845,  844
 321,  840,  841,  846,  845
 322,  841,  842,  847,  846
 323,  842,  843,  848,  847
 324,  843,  105,  106,  848
 325,  568,  844,  849,  567
 326,  844,  845,  850,  849
 327,  845,  846,  851,  850
 328,  846,  847,  852,  851
 329,  847,  848,  853,  852
 330,  848,  106,  107,  853
 331,  567,  849,  854,  566
 332,  849,  850,  855,  854
 333,  850,  851,  856,  855
 334,  851,  852,  857,  856
 335,  852,  853,  858,  857
 336,  853,  107,  108,  858
 337,  566,  854,  859,  565
 338,  854,  855,  860,  859
 339,  855,  856,  861,  860
 340,  856,  857,  862,  861
 341,  857,  858,  863,  862
 342,  858,  108,  109,  863
 343,  565,  859,  864,  564
 344,  859,  860,  865,  864
 345,  860,  861,  866,  865
 346,  861,  862,  867,  866
 347,  862,  863,  868,  867
 348,  863,  109,  110,  868
 349,  564,  864,  869,  563
 350,  864,  865,  870,  869
 351,  865,  866,  871,  870
 352,  866,  867,  872,  871
 353,  867,  868,  873,  872
 354,  868,  110,  111,  873
 355,  563,  869,  874,  562
 356,  869,  870,  875,  874
 357,  870,  871,  876,  875
 358,  871,  872,  877,  876
 359,  872,  873,  878,  877
 360,  873,  111,  112,  878
 361,  562,  874,  879,  561
 362,  874,  875,  880,  879
 363,  875,  876,  881,  880
 364,  876,  877,  882,  881
 365,  877,  878,  883,  882
 366,  878,  112,  113,  883
 367,  561,  879,  884,  560
 368,  879,  880,  885,  884
 369,  880,  881,  886,  885
 370,  881,  882,  887,  886
 371,  882,  883,  888,  887
 372,  883,  113,  114,  888
 373,  560,  884,  889,  559
 374,  884,  885,  890,  889
 375,  885,  886,  891,  890
 376,  886,  887,  892,  891
 377,  887,  888,  893,  892
 378,  888,  114,  115,  893
 379,  559,  889,  894,  558
 380,  889,  890,  895,  894
 381,  890,  891,  896,  895
 382,  891,  892,  897,  896
 383,  892,  893,  898,  897
 384,  893,  115,  116,  898
 385,  558,  894,  899,  557
 386,  894,  895,  900,  899
 387,  895,  896,  901,  900
 388,  896,  897,  902,  901
 389,  897,  898,  903,  902
 390,  898,  116,  117,  903
 391,  557,  899,  904,  556
 392,  899,  900,  905,  904
 393,  900,  901,  906,  905
 394,  901,  902,  907,  906
 395,  902,  903,  908,  907
 396,  903,  117,  118,  908
 397,  556,  904,  909,  555
 398,  904,  905,  910,  909
 399,  905,  906,  911,  910
 400,  906,  907,  912,  911
 401,  907,  908,  913,  912
 402,  908,  118,  119,  913
 403,  555,  909,  914,  554
 404,  909,  910,  915,  914
 405,  910,  911,  916,  915
 406,  911,  912,  917,  916
 407,  912,  913,  918,  917
 408,  913,  119,  120,  918
 409,  554,  914,  919,  553
 410,  914,  915,  920,  919
 411,  915,  916,  921,  920
 412,  916,  917,  922,  921
 413,  917,  918,  923,  922
 414,  918,  120,  121,  923
 415,  553,  919,  924,  552
 416,  919,  920,  925,  924
 417,  920,  921,  926,  925
 418,  921,  922,  927,  926
 419,  922,  923,  928,  927
 420,  923,  121,  122,  928
 421,  552,  924,  929,  551
 422,  924,  925,  930,  929
 423,  925,  926,  931,  930
 424,  926,  927,  932,  931
 425,  927,  928,  933,  932
 426,  928,  122,  123,  933
 427,  551,  929,  934,  550
 428,  929,  930,  935,  934
 429,  930,  931,  936,  935
 430,  931,  932,  937,  936
 431,  932,  933,  938,  937
 432,  933,  123,  124,  938
 433,  550,  934,  939,  549
 434,  934,  935,  940,  939
 435,  935,  936,  941,  940
 436,  936,  937,  942,  941
 437,  937,  938,  943,  942
 438,  938,  124,  125,  943
 439,  549,  939,  944,  548
 440,  939,  940,  945,  944
 441,  940,  941,  946,  945
 442,  941,  942,  947,  946
 443,  942,  943,  948,  947
 444,  943,  125,  126,  948
 445,  548,  944,  949,  547
 446,  944,  945,  950,  949
 447,  945,  946,  951,  950
 448,  946,  947,  952,  951
 449,  947,  948,  953,  952
 450,  948,  126,  127,  953
 451,  547,  949,  954,  546
 452,  949,  950,  955,  954
 453,  950,  951,  956,  955
 454,  951,  952,  957,  956
 455,  952,  953,  958,  957
 456,  953,  127,  128,  958
 457,  546,  954,  959,  545
 458,  954,  955,  960,  959
 459,  955,  956,  961,  960
 460,  956,  957,  962,  961
 461,  957,  958,  963,  962
 462,  958,  128,  129,  963
 463,  545,  959,  964,  544
 464,  959,  960,  965,  964
 465,  960,  961,  966,  965
 466,  961,  962,  967,  966
 467,  962,  963,  968,  967
 468,  963,  129,  130,  968
 469,  544,  964,  969,  543
 470,  964,  965,  970,  969
 471,  965,  966,  971,  970
 472,  966,  967,  972,  971
 473,  967,  968,  973,  972
 474,  968,  130,  131,  973
 475,  543,  969,  974,  542
 476,  969,  970,  975,  974
 477,  970,  971,  976,  975
 478,  971,  972,  977,  976
 479,  972,  973,  978,  977
 480,  973,  131,  132,  978
 481,  542,  974,  979,  541
 482,  974,  975,  980,  979
 483,  975,  976,  981,  980
 484,  976,  977,  982,  981
 485,  977,  978,  983,  982
 486,  978,  132,  133,  983
 487,  541,  979,  984,  540
 488,  979,  980,  985,  984
 489,  980,  981,  986,  985
 490,  981,  982,  987,  986
 491,  982,  983,  988,  987
 492,  983,  133,  134,  988
 493,  540,  984,  989,  539
 494,  984,  985,  990,  989
 495,  985,  986,  991,  990
 496,  986,  987,  992,  991
 497,  987,  988,  993,  992
 498,  988,  134,  135,  993
 499,  539,  989,  994,  538
 500,  989,  990,  995,  994
 501,  990,  991,  996,  995
 502,  991,  992,  997,  996
 503,  992,  993,  998,  997
 504,  993,  135,  136,  998
 505,  538,  994,  999,  537
 506,  994,  995, 1000,  999
 507,  995,  996, 1001, 1000
 508,  996,  997, 1002, 1001
 509,  997,  998, 1003, 1002
 510,  998,  136,  137, 1003
 511,  537,  999, 1004,  536
 512,  999, 1000, 1005, 1004
 513, 1000, 1001, 1006, 1005
 514, 1001, 1002, 1007, 1006
 515, 1002, 1003, 1008, 1007
 516, 1003,  137,  138, 1008
 517,  536, 1004, 1009,  535
 518, 1004, 1005, 1010, 1009
 519, 1005, 1006, 1011, 1010
 520, 1006, 1007, 1012, 1011
 521, 1007, 1008, 1013, 1012
 522, 1008,  138,  139, 1013
 523,  535, 1009, 1014,  534
 524, 1009, 1010, 1015, 1014
 525, 1010, 1011, 1016, 1015
 526, 1011, 1012, 1017, 1016
 527, 1012, 1013, 1018, 1017
 528, 1013,  139,  140, 1018
 529,  534, 1014, 1019,  533
 530, 1014, 1015, 1020, 1019
 531, 1015, 1016, 1021, 1020
 532, 1016, 1017, 1022, 1021
 533, 1017, 1018, 1023, 1022
 534, 1018,  140,  141, 1023
 535,  533, 1019, 1024,  532
 536, 1019, 1020, 1025, 1024
 537, 1020, 1021, 1026, 1025
 538, 1021, 1022, 1027, 1026
 539, 1022, 1023, 1028, 1027
 540, 1023,  141,  142, 1028
 541,  532, 1024, 1029,  531
 542, 1024, 1025, 1030, 1029
 543, 1025, 1026, 1031, 1030
 544, 1026, 1027, 1032, 1031
 545, 1027, 1028, 1033, 1032
 546, 1028,  142,  143, 1033
 547,  531, 1029, 1034,  530
 548, 1029, 1030, 1035, 1034
 549, 1030, 1031, 1036, 1035
 550, 1031, 1032, 1037, 1036
 551, 1032, 1033, 1038, 1037
 552, 1033,  143,  144, 1038
 553,  530, 1034, 1039,  529
 554, 1034, 1035, 1040, 1039
 555, 1035, 1036, 1041, 1040
 556, 1036, 1037, 1042, 1041
 557, 1037, 1038, 1043, 1042
 558, 1038,  144,  145, 1043
 559,  529, 1039, 1044,  528
 560, 1039, 1040, 1045, 1044
 561, 1040, 1041, 1046, 1045
 562, 1041, 1042, 1047, 1046
 563, 1042, 1043, 1048, 1047
 564, 1043,  145,  146, 1048
 565,  528, 1044, 1049,  527
 566, 1044, 1045, 1050, 1049
 567, 1045, 1046, 1051, 1050
 568, 1046, 1047, 1052, 1051
 569, 1047, 1048, 1053, 1052
 570, 1048,  146,  147, 1053
 571,  527, 1049, 1054,  526
 572, 1049, 1050, 1055, 1054
 573, 1050, 1051, 1056, 1055
 574, 1051, 1052, 1057, 1056
 575, 1052, 1053, 1058, 1057
 576, 1053,  147,  148, 1058
 577,  526, 1054, 1059,  525
 578, 1054, 1055, 1060, 1059
 579, 1055, 1056, 1061, 1060
 580, 1056, 1057, 1062, 1061
 581, 1057, 1058, 1063, 1062
 582, 1058,  148,  149, 1063
 583,  525, 1059, 1064,  524
 584, 1059, 1060, 1065, 1064
 585, 1060, 1061, 1066, 1065
 586, 1061, 1062, 1067, 1066
 587, 1062, 1063, 1068, 1067
 588, 1063,  149,  150, 1068
 589,  524, 1064, 1069,  523
 590, 1064, 1065, 1070, 1069
 591, 1065, 1066, 1071, 1070
 592, 1066, 1067, 1072, 1071
 593, 1067, 1068, 1073, 1072
 594, 1068,  150,  151, 1073
 595,  523, 1069, 1074,  522
 596, 1069, 1070, 1075, 1074
 597, 1070, 1071, 1076, 1075
 598, 1071, 1072, 1077, 1076
 599, 1072, 1073, 1078, 1077
 600, 1073,  151,  152, 1078
 601,  522, 1074, 1079,  521
 602, 1074, 1075, 1080, 1079
 603, 1075, 1076, 1081, 1080
 604, 1076, 1077, 1082, 1081
 605, 1077, 1078, 1083, 1082
 606, 1078,  152,  153, 1083
 607,  521, 1079, 1084,  520
 608, 1079, 1080, 1085, 1084
 609, 1080, 1081, 1086, 1085
 610, 1081, 1082, 1087, 1086
 611, 1082, 1083, 1088, 1087
 612, 1083,  153,  154, 1088
 613,  520, 1084, 1089,  519
 614, 1084, 1085, 1090, 1089
 615, 1085, 1086, 1091, 1090
 616, 1086, 1087, 1092, 1091
 617, 1087, 1088, 1093, 1092
 618, 1088,  154,  155, 1093
 619,  519, 1089, 1094,  518
 620, 1089, 1090, 1095, 1094
 621, 1090, 1091, 1096, 1095
 622, 1091, 1092, 1097, 1096
 623, 1092, 1093, 1098, 1097
 624, 1093,  155,  156, 1098
 625,  518, 1094, 1099,  517
 626, 1094, 1095, 1100, 1099
 627, 1095, 1096, 1101, 1100
 628, 1096, 1097, 1102, 1101
 629, 1097, 1098, 1103, 1102
 630, 1098,  156,  157, 1103
 631,  517, 1099, 1104,  516
 632, 1099, 1100, 1105, 1104
 633, 1100, 1101, 1106, 1105
 634, 1101, 1102, 1107, 1106
 635, 1102, 1103, 1108, 1107
 636, 1103,  157,  158, 1108
 637,  516, 1104, 1109,  515
 638, 1104, 1105, 1110, 1109
 639, 1105, 1106, 1111, 1110
 640, 1106, 1107, 1112, 1111
 641, 1107, 1108, 1113, 1112
 642, 1108,  158,  159, 1113
 643,  515, 1109, 1114,  514
 644, 1109, 1110, 1115, 1114
 645, 1110, 1111, 1116, 1115
 646, 1111, 1112, 1117, 1116
 647, 1112, 1113, 1118, 1117
 648, 1113,  159,  160, 1118
 649,  514, 1114, 1119,  513
 650, 1114, 1115, 1120, 1119
 651, 1115, 1116, 1121, 1120
 652, 1116, 1117, 1122, 1121
 653, 1117, 1118, 1123, 1122
 654, 1118,  160,  161, 1123
 655,  513, 1119, 1124,  512
 656, 1119, 1120, 1125, 1124
 657, 1120, 1121, 1126, 1125
 658, 1121, 1122, 1127, 1126
 659, 1122, 1123, 1128, 1127
 660, 1123,  161,  162, 1128
 661,  512, 1124, 1129,  511
 662, 1124, 1125, 1130, 1129
 663, 1125, 1126, 1131, 1130
 664, 1126, 1127, 1132, 1131
 665, 1127, 1128, 1133, 1132
 666, 1128,  162,  163, 1133
 667,  511, 1129, 1134,  510
 668, 1129, 1130, 1135, 1134
 669, 1130, 1131, 1136, 1135
 670, 1131, 1132, 1137, 1136
 671, 1132, 1133, 1138, 1137
 672, 1133,  163,  164, 1138
 673,  510, 1134, 1139,  509
 674, 1134, 1135, 1140, 1139
 675, 1135, 1136, 1141, 1140
 676, 1136, 1137, 1142, 1141
 677, 1137, 1138, 1143, 1142
 678, 1138,  164,  165, 1143
 679,  509, 1139, 1144,  508
 680, 1139, 1140, 1145, 1144
 681, 1140, 1141, 1146, 1145
 682, 1141, 1142, 1147, 1146
 683, 1142, 1143, 1148, 1147
 684, 1143,  165,  166, 1148
 685,  508, 1144, 1149,  507
 686, 1144, 1145, 1150, 1149
 687, 1145, 1146, 1151, 1150
 688, 1146, 1147, 1152, 1151
 689, 1147, 1148, 1153, 1152
 690, 1148,  166,  167, 1153
 691,  507, 1149, 1154,  506
 692, 1149, 1150, 1155, 1154
 693, 1150, 1151, 1156, 1155
 694, 1151, 1152, 1157, 1156
 695, 1152, 1153, 1158, 1157
 696, 1153,  167,  168, 1158
 697,  506, 1154, 1159,  505
 698, 1154, 1155, 1160, 1159
 699, 1155, 1156, 1161, 1160
 700, 1156, 1157, 1162, 1161
 701, 1157, 1158, 1163, 1162
 702, 1158,  168,  169, 1163
 703,  505, 1159, 1164,  504
 704, 1159, 1160, 1165, 1164
 705, 1160, 1161, 1166, 1165
 706, 1161, 1162, 1167, 1166
 707, 1162, 1163, 1168, 1167
 708, 1163,  169,  170, 1168
 709,  504, 1164, 1169,  503
 710, 1164, 1165, 1170, 1169
 711, 1165, 1166, 1171, 1170
 712, 1166, 1167, 1172, 1171
 713, 1167, 1168, 1173, 1172
 714, 1168,  170,  171, 1173
 715,  503, 1169, 1174,  502
 716, 1169, 1170, 1175, 1174
 717, 1170, 1171, 1176, 1175
 718, 1171, 1172, 1177, 1176
 719, 1172, 1173, 1178, 1177
 720, 1173,  171,  172, 1178
 721,  502, 1174, 1179,  501
 722, 1174, 1175, 1180, 1179
 723, 1175, 1176, 1181, 1180
 724, 1176, 1177, 1182, 1181
 725, 1177, 1178, 1183, 1182
 726, 1178,  172,  173, 1183
 727,  501, 1179, 1184,  500
 728, 1179, 1180, 1185, 1184
 729, 1180, 1181, 1186, 1185
 730, 1181, 1182, 1187, 1186
 731, 1182, 1183, 1188, 1187
 732, 1183,  173,  174, 1188
 733,  500, 1184, 1189,  499
 734, 1184, 1185, 1190, 1189
 735, 1185, 1186, 1191, 1190
 736, 1186, 1187, 1192, 1191
 737, 1187, 1188, 1193, 1192
 738, 1188,  174,  175, 1193
 739,  499, 1189, 1194,  498
 740, 1189, 1190, 1195, 1194
 741, 1190, 1191, 1196, 1195
 742, 1191, 1192, 1197, 1196
 743, 1192, 1193, 1198, 1197
 744, 1193,  175,  176, 1198
 745,  498, 1194, 1199,  497
 746, 1194, 1195, 1200, 1199
 747, 1195, 1196, 1201, 1200
 748, 1196, 1197, 1202, 1201
 749, 1197, 1198, 1203, 1202
 750, 1198,  176,  177, 1203
 751,  497, 1199, 1204,  496
 752, 1199, 1200, 1205, 1204
 753, 1200, 1201, 1206, 1205
 754, 1201, 1202, 1207, 1206
 755, 1202, 1203, 1208, 1207
 756, 1203,  177,  178, 1208
 757,  496, 1204, 1209,  495
 758, 1204, 1205, 1210, 1209
 759, 1205, 1206, 1211, 1210
 760, 1206, 1207, 1212, 1211
 761, 1207, 1208, 1213, 1212
 762, 1208,  178,  179, 1213
 763,  495, 1209, 1214,  494
 764, 1209, 1210, 1215, 1214
 765, 1210, 1211, 1216, 1215
 766, 1211, 1212, 1217, 1216
 767, 1212, 1213, 1218, 1217
 768, 1213,  179,  180, 1218
 769,  494, 1214, 1219,  493
 770, 1214, 1215, 1220, 1219
 771, 1215, 1216, 1221, 1220
 772, 1216, 1217, 1222, 1221
 773, 1217, 1218, 1223, 1222
 774, 1218,  180,  181, 1223
 775,  493, 1219, 1224,  492
 776, 1219, 1220, 1225, 1224
 777, 1220, 1221, 1226, 1225
 778, 1221, 1222, 1227, 1226
 779, 1222, 1223, 1228, 1227
 780, 1223,  181,  182, 1228
 781,  492, 1224, 1229,  491
 782, 1224, 1225, 1230, 1229
 783, 1225, 1226, 1231, 1230
 784, 1226, 1227, 1232, 1231
 785, 1227, 1228, 1233, 1232
 786, 1228,  182,  183, 1233
 787,  491, 1229, 1234,  490
 788, 1229, 1230, 1235, 1234
 789, 1230, 1231, 1236, 1235
 790, 1231, 1232, 1237, 1236
 791, 1232, 1233, 1238, 1237
 792, 1233,  183,  184, 1238
 793,  490, 1234, 1239,  489
 794, 1234, 1235, 1240, 1239
 795, 1235, 1236, 1241, 1240
 796, 1236, 1237, 1242, 1241
 797, 1237, 1238, 1243, 1242
 798, 1238,  184,  185, 1243
 799,  489, 1239, 1244,  488
 800, 1239, 1240, 1245, 1244
 801, 1240, 1241, 1246, 1245
 802, 1241, 1242, 1247, 1246
 803, 1242, 1243, 1248, 1247
 804, 1243,  185,  186, 1248
 805,  488, 1244, 1249,  487
 806, 1244, 1245, 1250, 1249
 807, 1245, 1246, 1251, 1250
 808, 1246, 1247, 1252, 1251
 809, 1247, 1248, 1253, 1252
 810, 1248,  186,  187, 1253
 811,  487, 1249, 1254,  486
 812, 1249, 1250, 1255, 1254
 813, 1250, 1251, 1256, 1255
 814, 1251, 1252, 1257, 1256
 815, 1252, 1253, 1258, 1257
 816, 1253,  187,  188, 1258
 817,  486, 1254, 1259,  485
 818, 1254, 1255, 1260, 1259
 819, 1255, 1256, 1261, 1260
 820, 1256, 1257, 1262, 1261
 821, 1257, 1258, 1263, 1262
 822, 1258,  188,  189, 1263
 823,  485, 1259, 1264,  484
 824, 1259, 1260, 1265, 1264
 825, 1260, 1261, 1266, 1265
 826, 1261, 1262, 1267, 1266
 827, 1262, 1263, 1268, 1267
 828, 1263,  189,  190, 1268
 829,  484, 1264, 1269,  483
 830, 1264, 1265, 1270, 1269
 831, 1265, 1266, 1271, 1270
 832, 1266, 1267, 1272, 1271
 833, 1267, 1268, 1273, 1272
 834, 1268,  190,  191, 1273
 835,  483, 1269, 1274,  482
 836, 1269, 1270, 1275, 1274
 837, 1270, 1271, 1276, 1275
 838, 1271, 1272, 1277, 1276
 839, 1272, 1273, 1278, 1277
 840, 1273,  191,  192, 1278
 841,  482, 1274, 1279,  481
 842, 1274, 1275, 1280, 1279
 843, 1275, 1276, 1281, 1280
 844, 1276, 1277, 1282, 1281
 845, 1277, 1278, 1283, 1282
 846, 1278,  192,  193, 1283
 847,  481, 1279, 1284,  480
 848, 1279, 1280, 1285, 1284
 849, 1280, 1281, 1286, 1285
 850, 1281, 1282, 1287, 1286
 851, 1282, 1283, 1288, 1287
 852, 1283,  193,  194, 1288
 853,  480, 1284, 1289,  479
 854, 1284, 1285, 1290, 1289
 855, 1285, 1286, 1291, 1290
 856, 1286, 1287, 1292, 1291
 857, 1287, 1288, 1293, 1292
 858, 1288,  194,  195, 1293
 859,  479, 1289, 1294,  478
 860, 1289, 1290, 1295, 1294
 861, 1290, 1291, 1296, 1295
 862, 1291, 1292, 1297, 1296
 863, 1292, 1293, 1298, 1297
 864, 1293,  195,  196, 1298
 865,  478, 1294, 1299,  477
 866, 1294, 1295, 1300, 1299
 867, 1295, 1296, 1301, 1300
 868, 1296, 1297, 1302, 1301
 869, 1297, 1298, 1303, 1302
 870, 1298,  196,  197, 1303
 871,  477, 1299, 1304,  476
 872, 1299, 1300, 1305, 1304
 873, 1300, 1301, 1306, 1305
 874, 1301, 1302, 1307, 1306
 875, 1302, 1303, 1308, 1307
 876, 1303,  197,  198, 1308
 877,  476, 1304, 1309,  475
 878, 1304, 1305, 1310, 1309
 879, 1305, 1306, 1311, 1310
 880, 1306, 1307, 1312, 1311
 881, 1307, 1308, 1313, 1312
 882, 1308,  198,  199, 1313
 883,  475, 1309, 1314,  474
 884, 1309, 1310, 1315, 1314
 885, 1310, 1311, 1316, 1315
 886, 1311, 1312, 1317, 1316
 887, 1312, 1313, 1318, 1317
 888, 1313,  199,  200, 1318
 889,  474, 1314, 1319,  473
 890, 1314, 1315, 1320, 1319
 891, 1315, 1316, 1321, 1320
 892, 1316, 1317, 1322, 1321
 893, 1317, 1318, 1323, 1322
 894, 1318,  200,  201, 1323
 895,  473, 1319, 1324,  472
 896, 1319, 1320, 1325, 1324
 897, 1320, 1321, 1326, 1325
 898, 1321, 1322, 1327, 1326
 899, 1322, 1323, 1328, 1327
 900, 1323,  201,  202, 1328
 901,  472, 1324, 1329,  471
 902, 1324, 1325, 1330, 1329
 903, 1325, 1326, 1331, 1330
 904, 1326, 1327, 1332, 1331
 905, 1327, 1328, 1333, 1332
 906, 1328,  202,  203, 1333
 907,  471, 1329, 1334,  470
 908, 1329, 1330, 1335, 1334
 909, 1330, 1331, 1336, 1335
 910, 1331, 1332, 1337, 1336
 911, 1332, 1333, 1338, 1337
 912, 1333,  203,  204, 1338
 913,  470, 1334, 1339,  469
 914, 1334, 1335, 1340, 1339
 915, 1335, 1336, 1341, 1340
 916, 1336, 1337, 1342, 1341
 917, 1337, 1338, 1343, 1342
 918, 1338,  204,  205, 1343
 919,  469, 1339, 1344,  468
 920, 1339, 1340, 1345, 1344
 921, 1340, 1341, 1346, 1345
 922, 1341, 1342, 1347, 1346
 923, 1342, 1343, 1348, 1347
 924, 1343,  205,  206, 1348
 925,  468, 1344, 1349,  467
 926, 1344, 1345, 1350, 1349
 927, 1345, 1346, 1351, 1350
 928, 1346, 1347, 1352, 1351
 929, 1347, 1348, 1353, 1352
 930, 1348,  206,  207, 1353
 931,  467, 1349, 1354,  466
 932, 1349, 1350, 1355, 1354
 933, 1350, 1351, 1356, 1355
 934, 1351, 1352, 1357, 1356
 935, 1352, 1353, 1358, 1357
 936, 1353,  207,  208, 1358
 937,  466, 1354, 1359,  465
 938, 1354, 1355, 1360, 1359
 939, 1355, 1356, 1361, 1360
 940, 1356, 1357, 1362, 1361
 941, 1357, 1358, 1363, 1362
 942, 1358,  208,  209, 1363
 943,  465, 1359, 1364,  464
 944, 1359, 1360, 1365, 1364
 945, 1360, 1361, 1366, 1365
 946, 1361, 1362, 1367, 1366
 947, 1362, 1363, 1368, 1367
 948, 1363,  209,  210, 1368
 949,  464, 1364, 1369,  463
 950, 1364, 1365, 1370, 1369
 951, 1365, 1366, 1371, 1370
 952, 1366, 1367, 1372, 1371
 953, 1367, 1368, 1373, 1372
 954, 1368,  210,  211, 1373
 955,  463, 1369, 1374,  462
 956, 1369, 1370, 1375, 1374
 957, 1370, 1371, 1376, 1375
 958, 1371, 1372, 1377, 1376
 959, 1372, 1373, 1378, 1377
 960, 1373,  211,  212, 1378
 961,  462, 1374, 1379,  461
 962, 1374, 1375, 1380, 1379
 963, 1375, 1376, 1381, 1380
 964, 1376, 1377, 1382, 1381
 965, 1377, 1378, 1383, 1382
 966, 1378,  212,  213, 1383
 967,  461, 1379, 1384,  460
 968, 1379, 1380, 1385, 1384
 969, 1380, 1381, 1386, 1385
 970, 1381, 1382, 1387, 1386
 971, 1382, 1383, 1388, 1387
 972, 1383,  213,  214, 1388
 973,  460, 1384, 1389,  459
 974, 1384, 1385, 1390, 1389
 975, 1385, 1386, 1391, 1390
 976, 1386, 1387, 1392, 1391
 977, 1387, 1388, 1393, 1392
 978, 1388,  214,  215, 1393
 979,  459, 1389, 1394,  458
 980, 1389, 1390, 1395, 1394
 981, 1390, 1391, 1396, 1395
 982, 1391, 1392, 1397, 1396
 983, 1392, 1393, 1398, 1397
 984, 1393,  215,  216, 1398
 985,  458, 1394, 1399,  457
 986, 1394, 1395, 1400, 1399
 987, 1395, 1396, 1401, 1400
 988, 1396, 1397, 1402, 1401
 989, 1397, 1398, 1403, 1402
 990, 1398,  216,  217, 1403
 991,  457, 1399, 1404,  456
 992, 1399, 1400, 1405, 1404
 993, 1400, 1401, 1406, 1405
 994, 1401, 1402, 1407, 1406
 995, 1402, 1403, 1408, 1407
 996, 1403,  217,  218, 1408
 997,  456, 1404, 1409,  455
 998, 1404, 1405, 1410, 1409
 999, 1405, 1406, 1411, 1410
1000, 1406, 1407, 1412, 1411
1001, 1407, 1408, 1413, 1412
1002, 1408,  218,  219, 1413
1003,  455, 1409, 1414,  454
1004, 1409, 1410, 1415, 1414
1005, 1410, 1411, 1416, 1415
1006, 1411, 1412, 1417, 1416
1007, 1412, 1413, 1418, 1417
1008, 1413,  219,  220, 1418
1009,  454, 1414, 1419,  453
1010, 1414, 1415, 1420, 1419
1011, 1415, 1416, 1421, 1420
1012, 1416, 1417, 1422, 1421
1013, 1417, 1418, 1423, 1422
1014, 1418,  220,  221, 1423
1015,  453, 1419, 1424,  452
1016, 1419, 1420, 1425, 1424
1017, 1420, 1421, 1426, 1425
1018, 1421, 1422, 1427, 1426
1019, 1422, 1423, 1428, 1427
1020, 1423,  221,  222, 1428
1021,  452, 1424, 1429,  451
1022, 1424, 1425, 1430, 1429
1023, 1425, 1426, 1431, 1430
1024, 1426, 1427, 1432, 1431
1025, 1427, 1428, 1433, 1432
1026, 1428,  222,  223, 1433
1027,  451, 1429, 1434,  450
1028, 1429, 1430, 1435, 1434
1029, 1430, 1431, 1436, 1435
1030, 1431, 1432, 1437, 1436
1031, 1432, 1433, 1438, 1437
1032, 1433,  223,  224, 1438
1033,  450, 1434, 1439,  449
1034, 1434, 1435, 1440, 1439
1035, 1435, 1436, 1441, 1440
1036, 1436, 1437, 1442, 1441
1037, 1437, 1438, 1443, 1442
1038, 1438,  224,  225, 1443
1039,  449, 1439, 1444,  448
1040, 1439, 1440, 1445, 1444
1041, 1440, 1441, 1446, 1445
1042, 1441, 1442, 1447, 1446
1043, 1442, 1443, 1448, 1447
1044, 1443,  225,  226, 1448
1045,  448, 1444, 1449,  447
1046, 1444, 1445, 1450, 1449
1047, 1445, 1446, 1451, 1450
1048, 1446, 1447, 1452, 1451
1049, 1447, 1448, 1453, 1452
1050, 1448,  226,  227, 1453
1051,  447, 1449, 1454,  446
1052, 1449, 1450, 1455, 1454
1053, 1450, 1451, 1456, 1455
1054, 1451, 1452, 1457, 1456
1055, 1452, 1453, 1458, 1457
1056, 1453,  227,  228, 1458
1057,  446, 1454, 1459,  445
1058, 1454, 1455, 1460, 1459
1059, 1455, 1456, 1461, 1460
1060, 1456, 1457, 1462, 1461
1061, 1457, 1458, 1463, 1462
1062, 1458,  228,  229, 1463
1063,  445, 1459, 1464,  444
1064, 1459, 1460, 1465, 1464
1065, 1460, 1461, 1466, 1465
1066, 1461, 1462, 1467, 1466
1067, 1462, 1463, 1468, 1467
1068, 1463,  229,  230, 1468
1069,  444, 1464, 1469,  443
1070, 1464, 1465, 1470, 1469
1071, 1465, 1466, 1471, 1470
1072, 1466, 1467, 1472, 1471
1073, 1467, 1468, 1473, 1472
1074, 1468,  230,  231, 1473
1075,  443, 1469, 1474,  442
1076, 1469, 1470, 1475, 1474
1077, 1470, 1471, 1476, 1475
1078, 1471, 1472, 1477, 1476
1079, 1472, 1473, 1478, 1477
1080, 1473,  231,  232, 1478
1081,  442, 1474, 1479,  441
1082, 1474, 1475, 1480, 1479
1083, 1475, 1476, 1481, 1480
1084, 1476, 1477, 1482, 1481
1085, 1477, 1478, 1483, 1482
1086, 1478,  232,  233, 1483
1087,  441, 1479, 1484,  440
1088, 1479, 1480, 1485, 1484
1089, 1480, 1481, 1486, 1485
1090, 1481, 1482, 1487, 1486
1091, 1482, 1483, 1488, 1487
1092, 1483,  233,  234, 1488
1093,  440, 1484, 1489,  439
1094, 1484, 1485, 1490, 1489
1095, 1485, 1486, 1491, 1490
1096, 1486, 1487, 1492, 1491
1097, 1487, 1488, 1493, 1492
1098, 1488,  234,  235, 1493
1099,  439, 1489, 1494,  438
1100, 1489, 1490, 1495, 1494
1101, 1490, 1491, 1496, 1495
1102, 1491, 1492, 1497, 1496
1103, 1492, 1493, 1498, 1497
1104, 1493,  235,  236, 1498
1105,  438, 1494, 1499,  437
1106, 1494, 1495, 1500, 1499
1107, 1495, 1496, 1501, 1500
1108, 1496, 1497, 1502, 1501
1109, 1497, 1498, 1503, 1502
1110, 1498,  236,  237, 1503
1111,  437, 1499, 1504,  436
1112, 1499, 1500, 1505, 1504
1113, 1500, 1501, 1506, 1505
1114, 1501, 1502, 1507, 1506
1115, 1502, 1503, 1508, 1507
1116, 1503,  237,  238, 1508
1117,  436, 1504, 1509,  435
1118, 1504, 1505, 1510, 1509
1119, 1505, 1506, 1511, 1510
1120, 1506, 1507, 1512, 1511
1121, 1507, 1508, 1513, 1512
1122, 1508,  238,  239, 1513
1123,  435, 1509, 1514,  434
1124, 1509, 1510, 1515, 1514
1125, 1510, 1511, 1516, 1515
1126, 1511, 1512, 1517, 1516
1127, 1512, 1513, 1518, 1517
1128, 1513,  239,  240, 1518
1129,  434, 1514, 1519,  433
1130, 1514, 1515, 1520, 1519
1131, 1515, 1516, 1521, 1520
1132, 1516, 1517, 1522, 1521
1133, 1517, 1518, 1523, 1522
1134, 1518,  240,  241, 1523
1135,  433, 1519, 1524,  432
1136, 1519, 1520, 1525, 1524
1137, 1520, 1521, 1526, 1525
1138, 1521, 1522, 1527, 1526
1139, 1522, 1523, 1528, 1527
1140, 1523,  241,  242, 1528
1141,  432, 1524, 1529,  431
1142, 1524, 1525, 1530, 1529
1143, 1525, 1526, 1531, 1530
1144, 1526, 1527, 1532, 1531
1145, 1527, 1528, 1533, 1532
1146, 1528,  242,  243, 1533
1147,  431, 1529, 1534,  430
1148, 1529, 1530, 1535, 1534
1149, 1530, 1531, 1536, 1535
1150, 1531, 1532, 1537, 1536
1151, 1532, 1533, 1538, 1537
1152, 1533,  243,  244, 1538
1153,  430, 1534, 1539,  429
1154, 1534, 1535, 1540, 1539
1155, 1535, 1536, 1541, 1540
1156, 1536, 1537, 1542, 1541
1157, 1537, 1538, 1543, 1542
1158, 1538,  244,  245, 1543
1159,  429, 1539, 1544,  428
1160, 1539, 1540, 1545, 1544
1161, 1540, 1541, 1546, 1545
1162, 1541, 1542, 1547, 1546
1163, 1542, 1543, 1548, 1547
1164, 1543,  245,  246, 1548
1165,  428, 1544, 1549,  427
1166, 1544, 1545, 1550, 1549
1167, 1545, 1546, 1551, 1550
1168, 1546, 1547, 1552, 1551
1169, 1547, 1548, 1553, 1552
1170, 1548,  246,  247, 1553
1171,  427, 1549, 1554,  426
1172, 1549, 1550, 1555, 1554
1173, 1550, 1551, 1556, 1555
1174, 1551, 1552, 1557, 1556
1175, 1552, 1553, 1558, 1557
1176, 1553,  247,  248, 1558
1177,  426, 1554, 1559,  425
1178, 1554, 1555, 1560, 1559
1179, 1555, 1556, 1561, 1560
1180, 1556, 1557, 1562, 1561
1181, 1557, 1558, 1563, 1562
1182, 1558,  248,  249, 1563
1183,  425, 1559, 1564,  424
1184, 1559, 1560, 1565, 1564
1185, 1560, 1561, 1566, 1565
1186, 1561, 1562, 1567, 1566
1187, 1562, 1563, 1568, 1567
1188, 1563,  249,  250, 1568
1189,  424, 1564, 1569,  423
1190, 1564, 1565, 1570, 1569
1191, 1565, 1566, 1571, 1570
1192, 1566, 1567, 1572, 1571
1193, 1567, 1568, 1573, 1572
1194, 1568,  250,  251, 1573
1195,  423, 1569, 1574,  422
1196, 1569, 1570, 1575, 1574
1197, 1570, 1571, 1576, 1575
1198, 1571, 1572, 1577, 1576
1199, 1572, 1573, 1578, 1577
1200, 1573,  251,  252, 1578
1201,  422, 1574, 1579,  421
1202, 1574, 1575, 1580, 1579
1203, 1575, 1576, 1581, 1580
1204, 1576, 1577, 1582, 1581
1205, 1577, 1578, 1583, 1582
1206, 1578,  252,  253, 1583
1207,  421, 1579, 1584,  420
1208, 1579, 1580, 1585, 1584
1209, 1580, 1581, 1586, 1585
1210, 1581, 1582, 1587, 1586
1211, 1582, 1583, 1588, 1587
1212, 1583,  253,  254, 1588
1213,  420, 1584, 1589,  419
1214, 1584, 1585, 1590, 1589
1215, 1585, 1586, 1591, 1590
1216, 1586, 1587, 1592, 1591
1217, 1587, 1588, 1593, 1592
1218, 1588,  254,  255, 1593
1219,  419, 1589, 1594,  418
1220, 1589, 1590, 1595, 1594
1221, 1590, 1591, 1596, 1595
1222, 1591, 1592, 1597, 1596
1223, 1592, 1593, 1598, 1597
1224, 1593,  255,  256, 1598
1225,  418, 1594, 1599,  417
1226, 1594, 1595, 1600, 1599
1227, 1595, 1596, 1601, 1600
1228, 1596, 1597, 1602, 1601
1229, 1597, 1598, 1603, 1602
1230, 1598,  256,  257, 1603
1231,  417, 1599, 1604,  416
1232, 1599, 1600, 1605, 1604
1233, 1600, 1601, 1606, 1605
1234, 1601, 1602, 1607, 1606
1235, 1602, 1603, 1608, 1607
1236, 1603,  257,  258, 1608
1237,  416, 1604, 1609,  415
1238, 1604, 1605, 1610, 1609
1239, 1605, 1606, 1611, 1610
1240, 1606, 1607, 1612, 1611
1241, 1607, 1608, 1613, 1612
1242, 1608,  258,  259, 1613
1243,  415, 1609, 1614,  414
1244, 1609, 1610, 1615, 1614
1245, 1610, 1611, 1616, 1615
1246, 1611, 1612, 1617, 1616
1247, 1612, 1613, 1618, 1617
1248, 1613,  259,  260, 1618
1249,  414, 1614, 1619,  413
1250, 1614, 1615, 1620, 1619
1251, 1615, 1616, 1621, 1620
1252, 1616, 1617, 1622, 1621
1253, 1617, 1618, 1623, 1622
1254, 1618,  260,  261, 1623
1255,  413, 1619, 1624,  412
1256, 1619, 1620, 1625, 1624
1257, 1620, 1621, 1626, 1625
1258, 1621, 1622, 1627, 1626
1259, 1622, 1623, 1628, 1627
1260, 1623,  261,  262, 1628
1261,  412, 1624, 1629,  411
1262, 1624, 1625, 1630, 1629
1263, 1625, 1626, 1631, 1630
1264, 1626, 1627, 1632, 1631
1265, 1627, 1628, 1633, 1632
1266, 1628,  262,  263, 1633
1267,  411, 1629, 1634,  410
1268, 1629, 1630, 1635, 1634
1269, 1630, 1631, 1636, 1635
1270, 1631, 1632, 1637, 1636
1271, 1632, 1633, 1638, 1637
1272, 1633,  263,  264, 1638
1273,  410, 1634, 1639,  409
1274, 1634, 1635, 1640, 1639
1275, 1635, 1636, 1641, 1640
1276, 1636, 1637, 1642, 1641
1277, 1637, 1638, 1643, 1642
1278, 1638,  264,  265, 1643
1279,  409, 1639, 1644,  408
1280, 1639, 1640, 1645, 1644
1281, 1640, 1641, 1646, 1645
1282, 1641, 1642, 1647, 1646
1283, 1642, 1643, 1648, 1647
1284, 1643,  265,  266, 1648
1285,  408, 1644, 1649,  407
1286, 1644, 1645, 1650, 1649
1287, 1645, 1646, 1651, 1650
1288, 1646, 1647, 1652, 1651
1289, 1647, 1648, 1653, 1652
1290, 1648,  266,  267, 1653
1291,  407, 1649, 1654,  406
1292, 1649, 1650, 1655, 1654
1293, 1650, 1651, 1656, 1655
1294, 1651, 1652, 1657, 1656
1295, 1652, 1653, 1658, 1657
1296, 1653,  267,  268, 1658
1297,  406, 1654, 1659,  405
1298, 1654, 1655, 1660, 1659
1299, 1655, 1656, 1661, 1660
1300, 1656, 1657, 1662, 1661
1301, 1657, 1658, 1663, 1662
1302, 1658,  268,  269, 1663
1303,  405, 1659, 1664,  404
1304, 1659, 1660, 1665, 1664
1305, 1660, 1661, 1666, 1665
1306, 1661, 1662, 1667, 1666
1307, 1662, 1663, 1668, 1667
1308, 1663,  269,  270, 1668
1309,  404, 1664, 1669,  403
1310, 1664, 1665, 1670, 1669
1311, 1665, 1666, 1671, 1670
1312, 1666, 1667, 1672, 1671
1313, 1667, 1668, 1673, 1672
1314, 1668,  270,  271, 1673
1315,  403, 1669, 1674,  402
1316, 1669, 1670, 1675, 1674
1317, 1670, 1671, 1676, 1675
1318, 1671, 1672, 1677, 1676
1319, 1672, 1673, 1678, 1677
1320, 1673,  271,  272, 1678
1321,  402, 1674, 1679,  401
1322, 1674, 1675, 1680, 1679
1323, 1675, 1676, 1681, 1680
1324, 1676, 1677, 1682, 1681
1325, 1677, 1678, 1683, 1682
1326, 1678,  272,  273, 1683
1327,  401, 1679, 1684,  400
1328, 1679, 1680, 1685, 1684
1329, 1680, 1681, 1686, 1685
1330, 1681, 1682, 1687, 1686
1331, 1682, 1683, 1688, 1687
1332, 1683,  273,  274, 1688
1333,  400, 1684, 1689,  399
1334, 1684, 1685, 1690, 1689
1335, 1685, 1686, 1691, 1690
1336, 1686, 1687, 1692, 1691
1337, 1687, 1688, 1693, 1692
1338, 1688,  274,  275, 1693
1339,  399, 1689, 1694,  398
1340, 1689, 1690, 1695, 1694
1341, 1690, 1691, 1696, 1695
1342, 1691, 1692, 1697, 1696
1343, 1692, 1693, 1698, 1697
1344, 1693,  275,  276, 1698
1345,  398, 1694, 1699,  397
1346, 1694, 1695, 1700, 1699
1347, 1695, 1696, 1701, 1700
1348, 1696, 1697, 1702, 1701
1349, 1697, 1698, 1703, 1702
1350, 1698,  276,  277, 1703
1351,  397, 1699, 1704,  396
1352, 1699, 1700, 1705, 1704
1353, 1700, 1701, 1706, 1705
1354, 1701, 1702, 1707, 1706
1355, 1702, 1703, 1708, 1707
1356, 1703,  277,  278, 1708
1357,  396, 1704, 1709,  395
1358, 1704, 1705, 1710, 1709
1359, 1705, 1706, 1711, 1710
1360, 1706, 1707, 1712, 1711
1361, 1707, 1708, 1713, 1712
1362, 1708,  278,  279, 1713
1363,  395, 1709, 1714,  394
1364, 1709, 1710, 1715, 1714
1365, 1710, 1711, 1716, 1715
1366, 1711, 1712, 1717, 1716
1367, 1712, 1713, 1718, 1717
1368, 1713,  279,  280, 1718
1369,  394, 1714, 1719,  393
1370, 1714, 1715, 1720, 1719
1371, 1715, 1716, 1721, 1720
1372, 1716, 1717, 1722, 1721
1373, 1717, 1718, 1723, 1722
1374, 1718,  280,  281, 1723
1375,  393, 1719, 1724,  392
1376, 1719, 1720, 1725, 1724
1377, 1720, 1721, 1726, 1725
1378, 1721, 1722, 1727, 1726
1379, 1722, 1723, 1728, 1727
1380, 1723,  281,  282, 1728
1381,  392, 1724, 1729,  391
1382, 1724, 1725, 1730, 1729
1383, 1725, 1726, 1731, 1730
1384, 1726, 1727, 1732, 1731
1385, 1727, 1728, 1733, 1732
1386, 1728,  282,  283, 1733
1387,  391, 1729, 1734,  390
1388, 1729, 1730, 1735, 1734
1389, 1730, 1731, 1736, 1735
1390, 1731, 1732, 1737, 1736
1391, 1732, 1733, 1738, 1737
1392, 1733,  283,  284, 1738
1393,  390, 1734, 1739,  389
1394, 1734, 1735, 1740, 1739
1395, 1735, 1736, 1741, 1740
1396, 1736, 1737, 1742, 1741
1397, 1737, 1738, 1743, 1742
1398, 1738,  284,  285, 1743
1399,  389, 1739, 1744,  388
1400, 1739, 1740, 1745, 1744
1401, 1740, 1741, 1746, 1745
1402, 1741, 1742, 1747, 1746
1403, 1742, 1743, 1748, 1747
1404, 1743,  285,  286, 1748
1405,  388, 1744, 1749,  387
1406, 1744, 1745, 1750, 1749
1407, 1745, 1746, 1751, 1750
1408, 1746, 1747, 1752, 1751
1409, 1747, 1748, 1753, 1752
1410, 1748,  286,  287, 1753
1411,  387, 1749, 1754,  386
1412, 1749, 1750, 1755, 1754
1413, 1750, 1751, 1756, 1755
1414, 1751, 1752, 1757, 1756
1415, 1752, 1753, 1758, 1757
1416, 1753,  287,  288, 1758
1417,  386, 1754, 1759,  385
1418, 1754, 1755, 1760, 1759
1419, 1755, 1756, 1761, 1760
1420, 1756, 1757, 1762, 1761
1421, 1757, 1758, 1763, 1762
1422, 1758,  288,  289, 1763
1423,  385, 1759, 1764,  384
1424, 1759, 1760, 1765, 1764
1425, 1760, 1761, 1766, 1765
1426, 1761, 1762, 1767, 1766
1427, 1762, 1763, 1768, 1767
1428, 1763,  289,  290, 1768
1429,  384, 1764, 1769,  383
1430, 1764, 1765, 1770, 1769
1431, 1765, 1766, 1771, 1770
1432, 1766, 1767, 1772, 1771
1433, 1767, 1768, 1773, 1772
1434, 1768,  290,  291, 1773
1435,  383, 1769, 1774,  382
1436, 1769, 1770, 1775, 1774
1437, 1770, 1771, 1776, 1775
1438, 1771, 1772, 1777, 1776
1439, 1772, 1773, 1778, 1777
1440, 1773,  291,  292, 1778
1441,  382, 1774, 1779,  381
1442, 1774, 1775, 1780, 1779
1443, 1775, 1776, 1781, 1780
1444, 1776, 1777, 1782, 1781
1445, 1777, 1778, 1783, 1782
1446, 1778,  292,  293, 1783
1447,  381, 1779, 1784,  380
1448, 1779, 1780, 1785, 1784
1449, 1780, 1781, 1786, 1785
1450, 1781, 1782, 1787, 1786
1451, 1782, 1783, 1788, 1787
1452, 1783,  293,  294, 1788
1453,  380, 1784, 1789,  379
1454, 1784, 1785, 1790, 1789
1455, 1785, 1786, 1791, 1790
1456, 1786, 1787, 1792, 1791
1457, 1787, 1788, 1793, 1792
1458, 1788,  294,  295, 1793
1459,  379, 1789, 1794,  378
1460, 1789, 1790, 1795, 1794
1461, 1790, 1791, 1796, 1795
1462, 1791, 1792, 1797, 1796
1463, 1792, 1793, 1798, 1797
1464, 1793,  295,  296, 1798
1465,  378, 1794, 1799,  377
1466, 1794, 1795, 1800, 1799
1467, 1795, 1796, 1801, 1800
1468, 1796, 1797, 1802, 1801
1469, 1797, 1798, 1803, 1802
1470, 1798,  296,  297, 1803
1471,  377, 1799, 1804,  376
1472, 1799, 1800, 1805, 1804
1473, 1800, 1801, 1806, 1805
1474, 1801, 1802, 1807, 1806
1475, 1802, 1803, 1808, 1807
1476, 1803,  297,  298, 1808
1477,  376, 1804, 1809,  375
1478, 1804, 1805, 1810, 1809
1479, 1805, 1806, 1811, 1810
1480, 1806, 1807, 1812, 1811
1481, 1807, 1808, 1813, 1812
1482, 1808,  298,  299, 1813
1483,  375, 1809, 1814,  374
1484, 1809, 1810, 1815, 1814
1485, 1810, 1811, 1816, 1815
1486, 1811, 1812, 1817, 1816
1487, 1812, 1813, 1818, 1817
1488, 1813,  299,  300, 1818
1489,  374, 1814, 1819,  373
1490, 1814, 1815, 1820, 1819
1491, 1815, 1816, 1821, 1820
1492, 1816, 1817, 1822, 1821
1493, 1817, 1818, 1823, 1822
1494, 1818,  300,  301, 1823
1495,  373, 1819, 1824,  372
1496, 1819, 1820, 1825, 1824
1497, 1820, 1821, 1826, 1825
1498, 1821, 1822, 1827, 1826
1499, 1822, 1823, 1828, 1827
1500, 1823,  301,  302, 1828
1501,  372, 1824, 1829,  371
1502, 1824, 1825, 1830, 1829
1503, 1825, 1826, 1831, 1830
1504, 1826, 1827, 1832, 1831
1505, 1827, 1828, 1833, 1832
1506, 1828,  302,  303, 1833
1507,  371, 1829, 1834,  370
1508, 1829, 1830, 1835, 1834
1509, 1830, 1831, 1836, 1835
1510, 1831, 1832, 1837, 1836
1511, 1832, 1833, 1838, 1837
1512, 1833,  303,  304, 1838
1513,  370, 1834, 1839,  369
1514, 1834, 1835, 1840, 1839
1515, 1835, 1836, 1841, 1840
1516, 1836, 1837, 1842, 1841
1517, 1837, 1838, 1843, 1842
1518, 1838,  304,  305, 1843
1519,  369, 1839, 1844,  368
1520, 1839, 1840, 1845, 1844
1521, 1840, 1841, 1846, 1845
1522, 1841, 1842, 1847, 1846
1523, 1842, 1843, 1848, 1847
1524, 1843,  305,  306, 1848
1525,  368, 1844, 1849,  367
1526, 1844, 1845, 1850, 1849
1527, 1845, 1846, 1851, 1850
1528, 1846, 1847, 1852, 1851
1529, 1847, 1848, 1853, 1852
1530, 1848,  306,  307, 1853
1531,  367, 1849, 1854,  366
1532, 1849, 1850, 1855, 1854
1533, 1850, 1851, 1856, 1855
1534, 1851, 1852, 1857, 1856
1535, 1852, 1853, 1858, 1857
1536, 1853,  307,  308, 1858
1537,  366, 1854, 1859,  365
1538, 1854, 1855, 1860, 1859
1539, 1855, 1856, 1861, 1860
1540, 1856, 1857, 1862, 1861
1541, 1857, 1858, 1863, 1862
1542, 1858,  308,  309, 1863
1543,  365, 1859, 1864,  364
1544, 1859, 1860, 1865, 1864
1545, 1860, 1861, 1866, 1865
1546, 1861, 1862, 1867, 1866
1547, 1862, 1863, 1868, 1867
1548, 1863,  309,  310, 1868
1549,  364, 1864, 1869,  363
1550, 1864, 1865, 1870, 1869
1551, 1865, 1866, 1871, 1870
1552, 1866, 1867, 1872, 1871
1553, 1867, 1868, 1873, 1872
1554, 1868,  310,  311, 1873
1555,  363, 1869, 1874,  362
1556, 1869, 1870, 1875, 1874
1557, 1870, 1871, 1876, 1875
1558, 1871, 1872, 1877, 1876
1559, 1872, 1873, 1878, 1877
1560, 1873,  311,  312, 1878
1561,  362, 1874, 1879,  361
1562, 1874, 1875, 1880, 1879
1563, 1875, 1876, 1881, 1880
1564, 1876, 1877, 1882, 1881
1565, 1877, 1878, 1883, 1882
1566, 1878,  312,  313, 1883
1567,  361, 1879, 1884,  360
1568, 1879, 1880, 1885, 1884
1569, 1880, 1881, 1886, 1885
1570, 1881, 1882, 1887, 1886
1571, 1882, 1883, 1888, 1887
1572, 1883,  313,  314, 1888
1573,  360, 1884, 1889,  359
1574, 1884, 1885, 1890, 1889
1575, 1885, 1886, 1891, 1890
1576, 1886, 1887, 1892, 1891
1577, 1887, 1888, 1893, 1892
1578, 1888,  314,  315, 1893
1579,  359, 1889, 1894,  358
1580, 1889, 1890, 1895, 1894
1581, 1890, 1891, 1896, 1895
1582, 1891, 1892, 1897, 1896
1583, 1892, 1893, 1898, 1897
1584, 1893,  315,  316, 1898
1585,  358, 1894, 1899,  357
1586, 1894, 1895, 1900, 1899
1587, 1895, 1896, 1901, 1900
1588, 1896, 1897, 1902, 1901
1589, 1897, 1898, 1903, 1902
1590, 1898,  316,  317, 1903
1591,  357, 1899, 1904,  356
1592, 1899, 1900, 1905, 1904
1593, 1900, 1901, 1906, 1905
1594, 1901, 1902, 1907, 1906
1595, 1902, 1903, 1908, 1907
1596, 1903,  317,  318, 1908
1597,  356, 1904, 1909,  355
1598, 1904, 1905, 1910, 1909
1599, 1905, 1906, 1911, 1910
1600, 1906, 1907, 1912, 1911
1601, 1907, 1908, 1913, 1912
1602, 1908,  318,  319, 1913
1603,  355, 1909, 1914,  354
1604, 1909, 1910, 1915, 1914
1605, 1910, 1911, 1916, 1915
1606, 1911, 1912, 1917, 1916
1607, 1912, 1913, 1918, 1917
1608, 1913,  319,  320, 1918
1609,  354, 1914, 1919,  353
1610, 1914, 1915, 1920, 1919
1611, 1915, 1916, 1921, 1920
1612, 1916, 1917, 1922, 1921
1613, 1917, 1918, 1923, 1922
1614, 1918,  320,  321, 1923
1615,  353, 1919, 1924,  352
1616, 1919, 1920, 1925, 1924
1617, 1920, 1921, 1926, 1925
1618, 1921, 1922, 1927, 1926
1619, 1922, 1923, 1928, 1927
1620, 1923,  321,  322, 1928
1621,  352, 1924, 1929,  351
1622, 1924, 1925, 1930, 1929
1623, 1925, 1926, 1931, 1930
1624, 1926, 1927, 1932, 1931
1625, 1927, 1928, 1933, 1932
1626, 1928,  322,  323, 1933
1627,  351, 1929, 1934,  350
1628, 1929, 1930, 1935, 1934
1629, 1930, 1931, 1936, 1935
1630, 1931, 1932, 1937, 1936
1631, 1932, 1933, 1938, 1937
1632, 1933,  323,  324, 1938
1633,  350, 1934, 1939,  349
1634, 1934, 1935, 1940, 1939
1635, 1935, 1936, 1941, 1940
1636, 1936, 1937, 1942, 1941
1637, 1937, 1938, 1943, 1942
1638, 1938,  324,  325, 1943
1639,  349, 1939, 1944,  348
1640, 1939, 1940, 1945, 1944
1641, 1940, 1941, 1946, 1945
1642, 1941, 1942, 1947, 1946
1643, 1942, 1943, 1948, 1947
1644, 1943,  325,  326, 1948
1645,  348, 1944, 1949,  347
1646, 1944, 1945, 1950, 1949
1647, 1945, 1946, 1951, 1950
1648, 1946, 1947, 1952, 1951
1649, 1947, 1948, 1953, 1952
1650, 1948,  326,  327, 1953
1651,  347, 1949, 1954,  346
1652, 1949, 1950, 1955, 1954
1653, 1950, 1951, 1956, 1955
1654, 1951, 1952, 1957, 1956
1655, 1952, 1953, 1958, 1957
1656, 1953,  327,  328, 1958
1657,  346, 1954, 1959,  345
1658, 1954, 1955, 1960, 1959
1659, 1955, 1956, 1961, 1960
1660, 1956, 1957, 1962, 1961
1661, 1957, 1958, 1963, 1962
1662, 1958,  328,  329, 1963
1663,  345, 1959, 1964,  344
1664, 1959, 1960, 1965, 1964
1665, 1960, 1961, 1966, 1965
1666, 1961, 1962, 1967, 1966
1667, 1962, 1963, 1968, 1967
1668, 1963,  329,  330, 1968
1669,  344, 1964, 1969,  343
1670, 1964, 1965, 1970, 1969
1671, 1965, 1966, 1971, 1970
1672, 1966, 1967, 1972, 1971
1673, 1967, 1968, 1973, 1972
1674, 1968,  330,  331, 1973
1675,  343, 1969, 1974,  342
1676, 1969, 1970, 1975, 1974
1677, 1970, 1971, 1976, 1975
1678, 1971, 1972, 1977, 1976
1679, 1972, 1973, 1978, 1977
1680, 1973,  331,  332, 1978
1681,  342, 1974, 1979,  341
1682, 1974, 1975, 1980, 1979
1683, 1975, 1976, 1981, 1980
1684, 1976, 1977, 1982, 1981
1685, 1977, 1978, 1983, 1982
1686, 1978,  332,  333, 1983
1687,  341, 1979, 1984,  340
1688, 1979, 1980, 1985, 1984
1689, 1980, 1981, 1986, 1985
1690, 1981, 1982, 1987, 1986
1691, 1982, 1983, 1988, 1987
1692, 1983,  333,  334, 1988
1693,  340, 1984,  339,   10
1694, 1984, 1985,  338,  339
1695, 1985, 1986,  337,  338
1696, 1986, 1987,  336,  337
1697, 1987, 1988,  335,  336
1698, 1988,  334,    9,  335
*Nset, nset=Set-1, generate
    1,  1988,     1
*Elset, elset=Set-1, generate
    1,  1698,     1
** Section: Adhesive
*Solid Section, elset=Set-1, material=Adhesive
,
*End Part
**  
*Part, name=adhesive-middle
*Node
      1,          -5.,   2.70000005
      2,  -5.19999981,   2.70000005
      3,   -5.4000001,   2.70000005
      4,   -5.5999999,   2.70000005
      5,  -5.80000019,   2.70000005
      6,          -6.,   2.70000005
      7,  -6.19999981,   2.70000005
      8,   -6.4000001,   2.70000005
      9,   -6.5999999,   2.70000005
     10,  -6.80000019,   2.70000005
     11,          -7.,   2.70000005
     12,  -7.19999981,   2.70000005
     13,   -7.4000001,   2.70000005
     14,   -7.5999999,   2.70000005
     15,  -7.80000019,   2.70000005
     16,          -8.,   2.70000005
     17,  -8.19999981,   2.70000005
     18,  -8.39999962,   2.70000005
     19,  -8.60000038,   2.70000005
     20,  -8.80000019,   2.70000005
     21,          -9.,   2.70000005
     22,  -9.19999981,   2.70000005
     23,  -9.39999962,   2.70000005
     24,  -9.60000038,   2.70000005
     25,  -9.80000019,   2.70000005
     26,         -10.,   2.70000005
     27,  -10.1999998,   2.70000005
     28,  -10.3999996,   2.70000005
     29,  -10.6000004,   2.70000005
     30,  -10.8000002,   2.70000005
     31,         -11.,   2.70000005
     32,  -11.1999998,   2.70000005
     33,  -11.3999996,   2.70000005
     34,  -11.6000004,   2.70000005
     35,  -11.8000002,   2.70000005
     36,         -12.,   2.70000005
     37,  -12.1999998,   2.70000005
     38,  -12.3999996,   2.70000005
     39,  -12.6000004,   2.70000005
     40,  -12.8000002,   2.70000005
     41,         -13.,   2.70000005
     42,  -13.1999998,   2.70000005
     43,  -13.3999996,   2.70000005
     44,  -13.6000004,   2.70000005
     45,  -13.8000002,   2.70000005
     46,         -14.,   2.70000005
     47,  -14.1999998,   2.70000005
     48,  -14.3999996,   2.70000005
     49,  -14.6000004,   2.70000005
     50,  -14.8000002,   2.70000005
     51,         -15.,   2.70000005
     52,  -15.1999998,   2.70000005
     53,  -15.3999996,   2.70000005
     54,  -15.6000004,   2.70000005
     55,  -15.8000002,   2.70000005
     56,         -16.,   2.70000005
     57,  -16.2000008,   2.70000005
     58,  -16.3999996,   2.70000005
     59,  -16.6000004,   2.70000005
     60,  -16.7999992,   2.70000005
     61,         -17.,   2.70000005
     62,  -17.2000008,   2.70000005
     63,  -17.3999996,   2.70000005
     64,  -17.6000004,   2.70000005
     65,  -17.7999992,   2.70000005
     66,         -18.,   2.70000005
     67,  -18.2000008,   2.70000005
     68,  -18.3999996,   2.70000005
     69,  -18.6000004,   2.70000005
     70,  -18.7999992,   2.70000005
     71,         -19.,   2.70000005
     72,  -19.2000008,   2.70000005
     73,  -19.3999996,   2.70000005
     74,  -19.6000004,   2.70000005
     75,  -19.7999992,   2.70000005
     76,         -20.,   2.70000005
     77,  -20.2000008,   2.70000005
     78,  -20.3999996,   2.70000005
     79,  -20.6000004,   2.70000005
     80,  -20.7999992,   2.70000005
     81,         -21.,   2.70000005
     82,  -21.2000008,   2.70000005
     83,  -21.3999996,   2.70000005
     84,  -21.6000004,   2.70000005
     85,  -21.7999992,   2.70000005
     86,         -22.,   2.70000005
     87,  -22.2000008,   2.70000005
     88,  -22.3999996,   2.70000005
     89,  -22.6000004,   2.70000005
     90,  -22.7999992,   2.70000005
     91,         -23.,   2.70000005
     92,  -23.2000008,   2.70000005
     93,  -23.3999996,   2.70000005
     94,  -23.6000004,   2.70000005
     95,  -23.7999992,   2.70000005
     96,         -24.,   2.70000005
     97,  -24.2000008,   2.70000005
     98,  -24.3999996,   2.70000005
     99,  -24.6000004,   2.70000005
    100,  -24.7999992,   2.70000005
    101,         -25.,   2.70000005
    102,  -25.2000008,   2.70000005
    103,  -25.3999996,   2.70000005
    104,  -25.6000004,   2.70000005
    105,  -25.7999992,   2.70000005
    106,         -26.,   2.70000005
    107,  -26.2000008,   2.70000005
    108,  -26.3999996,   2.70000005
    109,  -26.6000004,   2.70000005
    110,  -26.7999992,   2.70000005
    111,         -27.,   2.70000005
    112,  -27.2000008,   2.70000005
    113,  -27.3999996,   2.70000005
    114,  -27.6000004,   2.70000005
    115,  -27.7999992,   2.70000005
    116,         -28.,   2.70000005
    117,  -28.2000008,   2.70000005
    118,  -28.3999996,   2.70000005
    119,  -28.6000004,   2.70000005
    120,  -28.7999992,   2.70000005
    121,         -29.,   2.70000005
    122,  -29.2000008,   2.70000005
    123,  -29.3999996,   2.70000005
    124,  -29.6000004,   2.70000005
    125,  -29.7999992,   2.70000005
    126,         -30.,   2.70000005
    127,  -30.2000008,   2.70000005
    128,  -30.3999996,   2.70000005
    129,  -30.6000004,   2.70000005
    130,  -30.7999992,   2.70000005
    131,         -31.,   2.70000005
    132,  -31.2000008,   2.70000005
    133,  -31.3999996,   2.70000005
    134,  -31.6000004,   2.70000005
    135,  -31.7999992,   2.70000005
    136,         -32.,   2.70000005
    137,  -32.2000008,   2.70000005
    138,  -32.4000015,   2.70000005
    139,  -32.5999985,   2.70000005
    140,  -32.7999992,   2.70000005
    141,         -33.,   2.70000005
    142,  -33.2000008,   2.70000005
    143,  -33.4000015,   2.70000005
    144,  -33.5999985,   2.70000005
    145,  -33.7999992,   2.70000005
    146,         -34.,   2.70000005
    147,  -34.2000008,   2.70000005
    148,  -34.4000015,   2.70000005
    149,  -34.5999985,   2.70000005
    150,  -34.7999992,   2.70000005
    151,         -35.,   2.70000005
    152,  -35.2000008,   2.70000005
    153,  -35.4000015,   2.70000005
    154,  -35.5999985,   2.70000005
    155,  -35.7999992,   2.70000005
    156,         -36.,   2.70000005
    157,  -36.2000008,   2.70000005
    158,  -36.4000015,   2.70000005
    159,  -36.5999985,   2.70000005
    160,  -36.7999992,   2.70000005
    161,         -37.,   2.70000005
    162,  -37.2000008,   2.70000005
    163,  -37.4000015,   2.70000005
    164,  -37.5999985,   2.70000005
    165,  -37.7999992,   2.70000005
    166,         -38.,   2.70000005
    167,  -38.2000008,   2.70000005
    168,  -38.4000015,   2.70000005
    169,  -38.5999985,   2.70000005
    170,  -38.7999992,   2.70000005
    171,         -39.,   2.70000005
    172,  -39.2000008,   2.70000005
    173,  -39.4000015,   2.70000005
    174,  -39.5999985,   2.70000005
    175,  -39.7999992,   2.70000005
    176,         -40.,   2.70000005
    177,  -40.2000008,   2.70000005
    178,  -40.4000015,   2.70000005
    179,  -40.5999985,   2.70000005
    180,  -40.7999992,   2.70000005
    181,         -41.,   2.70000005
    182,  -41.2000008,   2.70000005
    183,  -41.4000015,   2.70000005
    184,  -41.5999985,   2.70000005
    185,  -41.7999992,   2.70000005
    186,         -42.,   2.70000005
    187,  -42.2000008,   2.70000005
    188,  -42.4000015,   2.70000005
    189,  -42.5999985,   2.70000005
    190,  -42.7999992,   2.70000005
    191,         -43.,   2.70000005
    192,  -43.2000008,   2.70000005
    193,  -43.4000015,   2.70000005
    194,  -43.5999985,   2.70000005
    195,  -43.7999992,   2.70000005
    196,         -44.,   2.70000005
    197,  -44.2000008,   2.70000005
    198,  -44.4000015,   2.70000005
    199,  -44.5999985,   2.70000005
    200,  -44.7999992,   2.70000005
    201,         -45.,   2.70000005
    202,  -45.2000008,   2.70000005
    203,  -45.4000015,   2.70000005
    204,  -45.5999985,   2.70000005
    205,  -45.7999992,   2.70000005
    206,         -46.,   2.70000005
    207,  -46.2000008,   2.70000005
    208,  -46.4000015,   2.70000005
    209,  -46.5999985,   2.70000005
    210,  -46.7999992,   2.70000005
    211,         -47.,   2.70000005
    212,  -47.2000008,   2.70000005
    213,  -47.4000015,   2.70000005
    214,  -47.5999985,   2.70000005
    215,  -47.7999992,   2.70000005
    216,         -48.,   2.70000005
    217,  -48.2000008,   2.70000005
    218,  -48.4000015,   2.70000005
    219,  -48.5999985,   2.70000005
    220,  -48.7999992,   2.70000005
    221,         -49.,   2.70000005
    222,  -49.2000008,   2.70000005
    223,  -49.4000015,   2.70000005
    224,  -49.5999985,   2.70000005
    225,  -49.7999992,   2.70000005
    226,         -50.,   2.70000005
    227,  -50.2000008,   2.70000005
    228,  -50.4000015,   2.70000005
    229,  -50.5999985,   2.70000005
    230,  -50.7999992,   2.70000005
    231,         -51.,   2.70000005
    232,  -51.2000008,   2.70000005
    233,  -51.4000015,   2.70000005
    234,  -51.5999985,   2.70000005
    235,  -51.7999992,   2.70000005
    236,         -52.,   2.70000005
    237,  -52.2000008,   2.70000005
    238,  -52.4000015,   2.70000005
    239,  -52.5999985,   2.70000005
    240,  -52.7999992,   2.70000005
    241,         -53.,   2.70000005
    242,  -53.2000008,   2.70000005
    243,  -53.4000015,   2.70000005
    244,  -53.5999985,   2.70000005
    245,  -53.7999992,   2.70000005
    246,         -54.,   2.70000005
    247,  -54.2000008,   2.70000005
    248,  -54.4000015,   2.70000005
    249,  -54.5999985,   2.70000005
    250,  -54.7999992,   2.70000005
    251,         -55.,   2.70000005
    252,          -5.,    2.5999999
    253,  -5.19999981,    2.5999999
    254,   -5.4000001,    2.5999999
    255,   -5.5999999,    2.5999999
    256,  -5.80000019,    2.5999999
    257,          -6.,    2.5999999
    258,  -6.19999981,    2.5999999
    259,   -6.4000001,    2.5999999
    260,   -6.5999999,    2.5999999
    261,  -6.80000019,    2.5999999
    262,          -7.,    2.5999999
    263,  -7.19999981,    2.5999999
    264,   -7.4000001,    2.5999999
    265,   -7.5999999,    2.5999999
    266,  -7.80000019,    2.5999999
    267,          -8.,    2.5999999
    268,  -8.19999981,    2.5999999
    269,  -8.39999962,    2.5999999
    270,  -8.60000038,    2.5999999
    271,  -8.80000019,    2.5999999
    272,          -9.,    2.5999999
    273,  -9.19999981,    2.5999999
    274,  -9.39999962,    2.5999999
    275,  -9.60000038,    2.5999999
    276,  -9.80000019,    2.5999999
    277,         -10.,    2.5999999
    278,  -10.1999998,    2.5999999
    279,  -10.3999996,    2.5999999
    280,  -10.6000004,    2.5999999
    281,  -10.8000002,    2.5999999
    282,         -11.,    2.5999999
    283,  -11.1999998,    2.5999999
    284,  -11.3999996,    2.5999999
    285,  -11.6000004,    2.5999999
    286,  -11.8000002,    2.5999999
    287,         -12.,    2.5999999
    288,  -12.1999998,    2.5999999
    289,  -12.3999996,    2.5999999
    290,  -12.6000004,    2.5999999
    291,  -12.8000002,    2.5999999
    292,         -13.,    2.5999999
    293,  -13.1999998,    2.5999999
    294,  -13.3999996,    2.5999999
    295,  -13.6000004,    2.5999999
    296,  -13.8000002,    2.5999999
    297,         -14.,    2.5999999
    298,  -14.1999998,    2.5999999
    299,  -14.3999996,    2.5999999
    300,  -14.6000004,    2.5999999
    301,  -14.8000002,    2.5999999
    302,         -15.,    2.5999999
    303,  -15.1999998,    2.5999999
    304,  -15.3999996,    2.5999999
    305,  -15.6000004,    2.5999999
    306,  -15.8000002,    2.5999999
    307,         -16.,    2.5999999
    308,  -16.2000008,    2.5999999
    309,  -16.3999996,    2.5999999
    310,  -16.6000004,    2.5999999
    311,  -16.7999992,    2.5999999
    312,         -17.,    2.5999999
    313,  -17.2000008,    2.5999999
    314,  -17.3999996,    2.5999999
    315,  -17.6000004,    2.5999999
    316,  -17.7999992,    2.5999999
    317,         -18.,    2.5999999
    318,  -18.2000008,    2.5999999
    319,  -18.3999996,    2.5999999
    320,  -18.6000004,    2.5999999
    321,  -18.7999992,    2.5999999
    322,         -19.,    2.5999999
    323,  -19.2000008,    2.5999999
    324,  -19.3999996,    2.5999999
    325,  -19.6000004,    2.5999999
    326,  -19.7999992,    2.5999999
    327,         -20.,    2.5999999
    328,  -20.2000008,    2.5999999
    329,  -20.3999996,    2.5999999
    330,  -20.6000004,    2.5999999
    331,  -20.7999992,    2.5999999
    332,         -21.,    2.5999999
    333,  -21.2000008,    2.5999999
    334,  -21.3999996,    2.5999999
    335,  -21.6000004,    2.5999999
    336,  -21.7999992,    2.5999999
    337,         -22.,    2.5999999
    338,  -22.2000008,    2.5999999
    339,  -22.3999996,    2.5999999
    340,  -22.6000004,    2.5999999
    341,  -22.7999992,    2.5999999
    342,         -23.,    2.5999999
    343,  -23.2000008,    2.5999999
    344,  -23.3999996,    2.5999999
    345,  -23.6000004,    2.5999999
    346,  -23.7999992,    2.5999999
    347,         -24.,    2.5999999
    348,  -24.2000008,    2.5999999
    349,  -24.3999996,    2.5999999
    350,  -24.6000004,    2.5999999
    351,  -24.7999992,    2.5999999
    352,         -25.,    2.5999999
    353,  -25.2000008,    2.5999999
    354,  -25.3999996,    2.5999999
    355,  -25.6000004,    2.5999999
    356,  -25.7999992,    2.5999999
    357,         -26.,    2.5999999
    358,  -26.2000008,    2.5999999
    359,  -26.3999996,    2.5999999
    360,  -26.6000004,    2.5999999
    361,  -26.7999992,    2.5999999
    362,         -27.,    2.5999999
    363,  -27.2000008,    2.5999999
    364,  -27.3999996,    2.5999999
    365,  -27.6000004,    2.5999999
    366,  -27.7999992,    2.5999999
    367,         -28.,    2.5999999
    368,  -28.2000008,    2.5999999
    369,  -28.3999996,    2.5999999
    370,  -28.6000004,    2.5999999
    371,  -28.7999992,    2.5999999
    372,         -29.,    2.5999999
    373,  -29.2000008,    2.5999999
    374,  -29.3999996,    2.5999999
    375,  -29.6000004,    2.5999999
    376,  -29.7999992,    2.5999999
    377,         -30.,    2.5999999
    378,  -30.2000008,    2.5999999
    379,  -30.3999996,    2.5999999
    380,  -30.6000004,    2.5999999
    381,  -30.7999992,    2.5999999
    382,         -31.,    2.5999999
    383,  -31.2000008,    2.5999999
    384,  -31.3999996,    2.5999999
    385,  -31.6000004,    2.5999999
    386,  -31.7999992,    2.5999999
    387,         -32.,    2.5999999
    388,  -32.2000008,    2.5999999
    389,  -32.4000015,    2.5999999
    390,  -32.5999985,    2.5999999
    391,  -32.7999992,    2.5999999
    392,         -33.,    2.5999999
    393,  -33.2000008,    2.5999999
    394,  -33.4000015,    2.5999999
    395,  -33.5999985,    2.5999999
    396,  -33.7999992,    2.5999999
    397,         -34.,    2.5999999
    398,  -34.2000008,    2.5999999
    399,  -34.4000015,    2.5999999
    400,  -34.5999985,    2.5999999
    401,  -34.7999992,    2.5999999
    402,         -35.,    2.5999999
    403,  -35.2000008,    2.5999999
    404,  -35.4000015,    2.5999999
    405,  -35.5999985,    2.5999999
    406,  -35.7999992,    2.5999999
    407,         -36.,    2.5999999
    408,  -36.2000008,    2.5999999
    409,  -36.4000015,    2.5999999
    410,  -36.5999985,    2.5999999
    411,  -36.7999992,    2.5999999
    412,         -37.,    2.5999999
    413,  -37.2000008,    2.5999999
    414,  -37.4000015,    2.5999999
    415,  -37.5999985,    2.5999999
    416,  -37.7999992,    2.5999999
    417,         -38.,    2.5999999
    418,  -38.2000008,    2.5999999
    419,  -38.4000015,    2.5999999
    420,  -38.5999985,    2.5999999
    421,  -38.7999992,    2.5999999
    422,         -39.,    2.5999999
    423,  -39.2000008,    2.5999999
    424,  -39.4000015,    2.5999999
    425,  -39.5999985,    2.5999999
    426,  -39.7999992,    2.5999999
    427,         -40.,    2.5999999
    428,  -40.2000008,    2.5999999
    429,  -40.4000015,    2.5999999
    430,  -40.5999985,    2.5999999
    431,  -40.7999992,    2.5999999
    432,         -41.,    2.5999999
    433,  -41.2000008,    2.5999999
    434,  -41.4000015,    2.5999999
    435,  -41.5999985,    2.5999999
    436,  -41.7999992,    2.5999999
    437,         -42.,    2.5999999
    438,  -42.2000008,    2.5999999
    439,  -42.4000015,    2.5999999
    440,  -42.5999985,    2.5999999
    441,  -42.7999992,    2.5999999
    442,         -43.,    2.5999999
    443,  -43.2000008,    2.5999999
    444,  -43.4000015,    2.5999999
    445,  -43.5999985,    2.5999999
    446,  -43.7999992,    2.5999999
    447,         -44.,    2.5999999
    448,  -44.2000008,    2.5999999
    449,  -44.4000015,    2.5999999
    450,  -44.5999985,    2.5999999
    451,  -44.7999992,    2.5999999
    452,         -45.,    2.5999999
    453,  -45.2000008,    2.5999999
    454,  -45.4000015,    2.5999999
    455,  -45.5999985,    2.5999999
    456,  -45.7999992,    2.5999999
    457,         -46.,    2.5999999
    458,  -46.2000008,    2.5999999
    459,  -46.4000015,    2.5999999
    460,  -46.5999985,    2.5999999
    461,  -46.7999992,    2.5999999
    462,         -47.,    2.5999999
    463,  -47.2000008,    2.5999999
    464,  -47.4000015,    2.5999999
    465,  -47.5999985,    2.5999999
    466,  -47.7999992,    2.5999999
    467,         -48.,    2.5999999
    468,  -48.2000008,    2.5999999
    469,  -48.4000015,    2.5999999
    470,  -48.5999985,    2.5999999
    471,  -48.7999992,    2.5999999
    472,         -49.,    2.5999999
    473,  -49.2000008,    2.5999999
    474,  -49.4000015,    2.5999999
    475,  -49.5999985,    2.5999999
    476,  -49.7999992,    2.5999999
    477,         -50.,    2.5999999
    478,  -50.2000008,    2.5999999
    479,  -50.4000015,    2.5999999
    480,  -50.5999985,    2.5999999
    481,  -50.7999992,    2.5999999
    482,         -51.,    2.5999999
    483,  -51.2000008,    2.5999999
    484,  -51.4000015,    2.5999999
    485,  -51.5999985,    2.5999999
    486,  -51.7999992,    2.5999999
    487,         -52.,    2.5999999
    488,  -52.2000008,    2.5999999
    489,  -52.4000015,    2.5999999
    490,  -52.5999985,    2.5999999
    491,  -52.7999992,    2.5999999
    492,         -53.,    2.5999999
    493,  -53.2000008,    2.5999999
    494,  -53.4000015,    2.5999999
    495,  -53.5999985,    2.5999999
    496,  -53.7999992,    2.5999999
    497,         -54.,    2.5999999
    498,  -54.2000008,    2.5999999
    499,  -54.4000015,    2.5999999
    500,  -54.5999985,    2.5999999
    501,  -54.7999992,    2.5999999
    502,         -55.,    2.5999999
    503,          -5.,          2.5
    504,  -5.19999981,          2.5
    505,   -5.4000001,          2.5
    506,   -5.5999999,          2.5
    507,  -5.80000019,          2.5
    508,          -6.,          2.5
    509,  -6.19999981,          2.5
    510,   -6.4000001,          2.5
    511,   -6.5999999,          2.5
    512,  -6.80000019,          2.5
    513,          -7.,          2.5
    514,  -7.19999981,          2.5
    515,   -7.4000001,          2.5
    516,   -7.5999999,          2.5
    517,  -7.80000019,          2.5
    518,          -8.,          2.5
    519,  -8.19999981,          2.5
    520,  -8.39999962,          2.5
    521,  -8.60000038,          2.5
    522,  -8.80000019,          2.5
    523,          -9.,          2.5
    524,  -9.19999981,          2.5
    525,  -9.39999962,          2.5
    526,  -9.60000038,          2.5
    527,  -9.80000019,          2.5
    528,         -10.,          2.5
    529,  -10.1999998,          2.5
    530,  -10.3999996,          2.5
    531,  -10.6000004,          2.5
    532,  -10.8000002,          2.5
    533,         -11.,          2.5
    534,  -11.1999998,          2.5
    535,  -11.3999996,          2.5
    536,  -11.6000004,          2.5
    537,  -11.8000002,          2.5
    538,         -12.,          2.5
    539,  -12.1999998,          2.5
    540,  -12.3999996,          2.5
    541,  -12.6000004,          2.5
    542,  -12.8000002,          2.5
    543,         -13.,          2.5
    544,  -13.1999998,          2.5
    545,  -13.3999996,          2.5
    546,  -13.6000004,          2.5
    547,  -13.8000002,          2.5
    548,         -14.,          2.5
    549,  -14.1999998,          2.5
    550,  -14.3999996,          2.5
    551,  -14.6000004,          2.5
    552,  -14.8000002,          2.5
    553,         -15.,          2.5
    554,  -15.1999998,          2.5
    555,  -15.3999996,          2.5
    556,  -15.6000004,          2.5
    557,  -15.8000002,          2.5
    558,         -16.,          2.5
    559,  -16.2000008,          2.5
    560,  -16.3999996,          2.5
    561,  -16.6000004,          2.5
    562,  -16.7999992,          2.5
    563,         -17.,          2.5
    564,  -17.2000008,          2.5
    565,  -17.3999996,          2.5
    566,  -17.6000004,          2.5
    567,  -17.7999992,          2.5
    568,         -18.,          2.5
    569,  -18.2000008,          2.5
    570,  -18.3999996,          2.5
    571,  -18.6000004,          2.5
    572,  -18.7999992,          2.5
    573,         -19.,          2.5
    574,  -19.2000008,          2.5
    575,  -19.3999996,          2.5
    576,  -19.6000004,          2.5
    577,  -19.7999992,          2.5
    578,         -20.,          2.5
    579,  -20.2000008,          2.5
    580,  -20.3999996,          2.5
    581,  -20.6000004,          2.5
    582,  -20.7999992,          2.5
    583,         -21.,          2.5
    584,  -21.2000008,          2.5
    585,  -21.3999996,          2.5
    586,  -21.6000004,          2.5
    587,  -21.7999992,          2.5
    588,         -22.,          2.5
    589,  -22.2000008,          2.5
    590,  -22.3999996,          2.5
    591,  -22.6000004,          2.5
    592,  -22.7999992,          2.5
    593,         -23.,          2.5
    594,  -23.2000008,          2.5
    595,  -23.3999996,          2.5
    596,  -23.6000004,          2.5
    597,  -23.7999992,          2.5
    598,         -24.,          2.5
    599,  -24.2000008,          2.5
    600,  -24.3999996,          2.5
    601,  -24.6000004,          2.5
    602,  -24.7999992,          2.5
    603,         -25.,          2.5
    604,  -25.2000008,          2.5
    605,  -25.3999996,          2.5
    606,  -25.6000004,          2.5
    607,  -25.7999992,          2.5
    608,         -26.,          2.5
    609,  -26.2000008,          2.5
    610,  -26.3999996,          2.5
    611,  -26.6000004,          2.5
    612,  -26.7999992,          2.5
    613,         -27.,          2.5
    614,  -27.2000008,          2.5
    615,  -27.3999996,          2.5
    616,  -27.6000004,          2.5
    617,  -27.7999992,          2.5
    618,         -28.,          2.5
    619,  -28.2000008,          2.5
    620,  -28.3999996,          2.5
    621,  -28.6000004,          2.5
    622,  -28.7999992,          2.5
    623,         -29.,          2.5
    624,  -29.2000008,          2.5
    625,  -29.3999996,          2.5
    626,  -29.6000004,          2.5
    627,  -29.7999992,          2.5
    628,         -30.,          2.5
    629,  -30.2000008,          2.5
    630,  -30.3999996,          2.5
    631,  -30.6000004,          2.5
    632,  -30.7999992,          2.5
    633,         -31.,          2.5
    634,  -31.2000008,          2.5
    635,  -31.3999996,          2.5
    636,  -31.6000004,          2.5
    637,  -31.7999992,          2.5
    638,         -32.,          2.5
    639,  -32.2000008,          2.5
    640,  -32.4000015,          2.5
    641,  -32.5999985,          2.5
    642,  -32.7999992,          2.5
    643,         -33.,          2.5
    644,  -33.2000008,          2.5
    645,  -33.4000015,          2.5
    646,  -33.5999985,          2.5
    647,  -33.7999992,          2.5
    648,         -34.,          2.5
    649,  -34.2000008,          2.5
    650,  -34.4000015,          2.5
    651,  -34.5999985,          2.5
    652,  -34.7999992,          2.5
    653,         -35.,          2.5
    654,  -35.2000008,          2.5
    655,  -35.4000015,          2.5
    656,  -35.5999985,          2.5
    657,  -35.7999992,          2.5
    658,         -36.,          2.5
    659,  -36.2000008,          2.5
    660,  -36.4000015,          2.5
    661,  -36.5999985,          2.5
    662,  -36.7999992,          2.5
    663,         -37.,          2.5
    664,  -37.2000008,          2.5
    665,  -37.4000015,          2.5
    666,  -37.5999985,          2.5
    667,  -37.7999992,          2.5
    668,         -38.,          2.5
    669,  -38.2000008,          2.5
    670,  -38.4000015,          2.5
    671,  -38.5999985,          2.5
    672,  -38.7999992,          2.5
    673,         -39.,          2.5
    674,  -39.2000008,          2.5
    675,  -39.4000015,          2.5
    676,  -39.5999985,          2.5
    677,  -39.7999992,          2.5
    678,         -40.,          2.5
    679,  -40.2000008,          2.5
    680,  -40.4000015,          2.5
    681,  -40.5999985,          2.5
    682,  -40.7999992,          2.5
    683,         -41.,          2.5
    684,  -41.2000008,          2.5
    685,  -41.4000015,          2.5
    686,  -41.5999985,          2.5
    687,  -41.7999992,          2.5
    688,         -42.,          2.5
    689,  -42.2000008,          2.5
    690,  -42.4000015,          2.5
    691,  -42.5999985,          2.5
    692,  -42.7999992,          2.5
    693,         -43.,          2.5
    694,  -43.2000008,          2.5
    695,  -43.4000015,          2.5
    696,  -43.5999985,          2.5
    697,  -43.7999992,          2.5
    698,         -44.,          2.5
    699,  -44.2000008,          2.5
    700,  -44.4000015,          2.5
    701,  -44.5999985,          2.5
    702,  -44.7999992,          2.5
    703,         -45.,          2.5
    704,  -45.2000008,          2.5
    705,  -45.4000015,          2.5
    706,  -45.5999985,          2.5
    707,  -45.7999992,          2.5
    708,         -46.,          2.5
    709,  -46.2000008,          2.5
    710,  -46.4000015,          2.5
    711,  -46.5999985,          2.5
    712,  -46.7999992,          2.5
    713,         -47.,          2.5
    714,  -47.2000008,          2.5
    715,  -47.4000015,          2.5
    716,  -47.5999985,          2.5
    717,  -47.7999992,          2.5
    718,         -48.,          2.5
    719,  -48.2000008,          2.5
    720,  -48.4000015,          2.5
    721,  -48.5999985,          2.5
    722,  -48.7999992,          2.5
    723,         -49.,          2.5
    724,  -49.2000008,          2.5
    725,  -49.4000015,          2.5
    726,  -49.5999985,          2.5
    727,  -49.7999992,          2.5
    728,         -50.,          2.5
    729,  -50.2000008,          2.5
    730,  -50.4000015,          2.5
    731,  -50.5999985,          2.5
    732,  -50.7999992,          2.5
    733,         -51.,          2.5
    734,  -51.2000008,          2.5
    735,  -51.4000015,          2.5
    736,  -51.5999985,          2.5
    737,  -51.7999992,          2.5
    738,         -52.,          2.5
    739,  -52.2000008,          2.5
    740,  -52.4000015,          2.5
    741,  -52.5999985,          2.5
    742,  -52.7999992,          2.5
    743,         -53.,          2.5
    744,  -53.2000008,          2.5
    745,  -53.4000015,          2.5
    746,  -53.5999985,          2.5
    747,  -53.7999992,          2.5
    748,         -54.,          2.5
    749,  -54.2000008,          2.5
    750,  -54.4000015,          2.5
    751,  -54.5999985,          2.5
    752,  -54.7999992,          2.5
    753,         -55.,          2.5
*Element, type=CPE4R
  1,   1,   2, 253, 252
  2,   2,   3, 254, 253
  3,   3,   4, 255, 254
  4,   4,   5, 256, 255
  5,   5,   6, 257, 256
  6,   6,   7, 258, 257
  7,   7,   8, 259, 258
  8,   8,   9, 260, 259
  9,   9,  10, 261, 260
 10,  10,  11, 262, 261
 11,  11,  12, 263, 262
 12,  12,  13, 264, 263
 13,  13,  14, 265, 264
 14,  14,  15, 266, 265
 15,  15,  16, 267, 266
 16,  16,  17, 268, 267
 17,  17,  18, 269, 268
 18,  18,  19, 270, 269
 19,  19,  20, 271, 270
 20,  20,  21, 272, 271
 21,  21,  22, 273, 272
 22,  22,  23, 274, 273
 23,  23,  24, 275, 274
 24,  24,  25, 276, 275
 25,  25,  26, 277, 276
 26,  26,  27, 278, 277
 27,  27,  28, 279, 278
 28,  28,  29, 280, 279
 29,  29,  30, 281, 280
 30,  30,  31, 282, 281
 31,  31,  32, 283, 282
 32,  32,  33, 284, 283
 33,  33,  34, 285, 284
 34,  34,  35, 286, 285
 35,  35,  36, 287, 286
 36,  36,  37, 288, 287
 37,  37,  38, 289, 288
 38,  38,  39, 290, 289
 39,  39,  40, 291, 290
 40,  40,  41, 292, 291
 41,  41,  42, 293, 292
 42,  42,  43, 294, 293
 43,  43,  44, 295, 294
 44,  44,  45, 296, 295
 45,  45,  46, 297, 296
 46,  46,  47, 298, 297
 47,  47,  48, 299, 298
 48,  48,  49, 300, 299
 49,  49,  50, 301, 300
 50,  50,  51, 302, 301
 51,  51,  52, 303, 302
 52,  52,  53, 304, 303
 53,  53,  54, 305, 304
 54,  54,  55, 306, 305
 55,  55,  56, 307, 306
 56,  56,  57, 308, 307
 57,  57,  58, 309, 308
 58,  58,  59, 310, 309
 59,  59,  60, 311, 310
 60,  60,  61, 312, 311
 61,  61,  62, 313, 312
 62,  62,  63, 314, 313
 63,  63,  64, 315, 314
 64,  64,  65, 316, 315
 65,  65,  66, 317, 316
 66,  66,  67, 318, 317
 67,  67,  68, 319, 318
 68,  68,  69, 320, 319
 69,  69,  70, 321, 320
 70,  70,  71, 322, 321
 71,  71,  72, 323, 322
 72,  72,  73, 324, 323
 73,  73,  74, 325, 324
 74,  74,  75, 326, 325
 75,  75,  76, 327, 326
 76,  76,  77, 328, 327
 77,  77,  78, 329, 328
 78,  78,  79, 330, 329
 79,  79,  80, 331, 330
 80,  80,  81, 332, 331
 81,  81,  82, 333, 332
 82,  82,  83, 334, 333
 83,  83,  84, 335, 334
 84,  84,  85, 336, 335
 85,  85,  86, 337, 336
 86,  86,  87, 338, 337
 87,  87,  88, 339, 338
 88,  88,  89, 340, 339
 89,  89,  90, 341, 340
 90,  90,  91, 342, 341
 91,  91,  92, 343, 342
 92,  92,  93, 344, 343
 93,  93,  94, 345, 344
 94,  94,  95, 346, 345
 95,  95,  96, 347, 346
 96,  96,  97, 348, 347
 97,  97,  98, 349, 348
 98,  98,  99, 350, 349
 99,  99, 100, 351, 350
100, 100, 101, 352, 351
101, 101, 102, 353, 352
102, 102, 103, 354, 353
103, 103, 104, 355, 354
104, 104, 105, 356, 355
105, 105, 106, 357, 356
106, 106, 107, 358, 357
107, 107, 108, 359, 358
108, 108, 109, 360, 359
109, 109, 110, 361, 360
110, 110, 111, 362, 361
111, 111, 112, 363, 362
112, 112, 113, 364, 363
113, 113, 114, 365, 364
114, 114, 115, 366, 365
115, 115, 116, 367, 366
116, 116, 117, 368, 367
117, 117, 118, 369, 368
118, 118, 119, 370, 369
119, 119, 120, 371, 370
120, 120, 121, 372, 371
121, 121, 122, 373, 372
122, 122, 123, 374, 373
123, 123, 124, 375, 374
124, 124, 125, 376, 375
125, 125, 126, 377, 376
126, 126, 127, 378, 377
127, 127, 128, 379, 378
128, 128, 129, 380, 379
129, 129, 130, 381, 380
130, 130, 131, 382, 381
131, 131, 132, 383, 382
132, 132, 133, 384, 383
133, 133, 134, 385, 384
134, 134, 135, 386, 385
135, 135, 136, 387, 386
136, 136, 137, 388, 387
137, 137, 138, 389, 388
138, 138, 139, 390, 389
139, 139, 140, 391, 390
140, 140, 141, 392, 391
141, 141, 142, 393, 392
142, 142, 143, 394, 393
143, 143, 144, 395, 394
144, 144, 145, 396, 395
145, 145, 146, 397, 396
146, 146, 147, 398, 397
147, 147, 148, 399, 398
148, 148, 149, 400, 399
149, 149, 150, 401, 400
150, 150, 151, 402, 401
151, 151, 152, 403, 402
152, 152, 153, 404, 403
153, 153, 154, 405, 404
154, 154, 155, 406, 405
155, 155, 156, 407, 406
156, 156, 157, 408, 407
157, 157, 158, 409, 408
158, 158, 159, 410, 409
159, 159, 160, 411, 410
160, 160, 161, 412, 411
161, 161, 162, 413, 412
162, 162, 163, 414, 413
163, 163, 164, 415, 414
164, 164, 165, 416, 415
165, 165, 166, 417, 416
166, 166, 167, 418, 417
167, 167, 168, 419, 418
168, 168, 169, 420, 419
169, 169, 170, 421, 420
170, 170, 171, 422, 421
171, 171, 172, 423, 422
172, 172, 173, 424, 423
173, 173, 174, 425, 424
174, 174, 175, 426, 425
175, 175, 176, 427, 426
176, 176, 177, 428, 427
177, 177, 178, 429, 428
178, 178, 179, 430, 429
179, 179, 180, 431, 430
180, 180, 181, 432, 431
181, 181, 182, 433, 432
182, 182, 183, 434, 433
183, 183, 184, 435, 434
184, 184, 185, 436, 435
185, 185, 186, 437, 436
186, 186, 187, 438, 437
187, 187, 188, 439, 438
188, 188, 189, 440, 439
189, 189, 190, 441, 440
190, 190, 191, 442, 441
191, 191, 192, 443, 442
192, 192, 193, 444, 443
193, 193, 194, 445, 444
194, 194, 195, 446, 445
195, 195, 196, 447, 446
196, 196, 197, 448, 447
197, 197, 198, 449, 448
198, 198, 199, 450, 449
199, 199, 200, 451, 450
200, 200, 201, 452, 451
201, 201, 202, 453, 452
202, 202, 203, 454, 453
203, 203, 204, 455, 454
204, 204, 205, 456, 455
205, 205, 206, 457, 456
206, 206, 207, 458, 457
207, 207, 208, 459, 458
208, 208, 209, 460, 459
209, 209, 210, 461, 460
210, 210, 211, 462, 461
211, 211, 212, 463, 462
212, 212, 213, 464, 463
213, 213, 214, 465, 464
214, 214, 215, 466, 465
215, 215, 216, 467, 466
216, 216, 217, 468, 467
217, 217, 218, 469, 468
218, 218, 219, 470, 469
219, 219, 220, 471, 470
220, 220, 221, 472, 471
221, 221, 222, 473, 472
222, 222, 223, 474, 473
223, 223, 224, 475, 474
224, 224, 225, 476, 475
225, 225, 226, 477, 476
226, 226, 227, 478, 477
227, 227, 228, 479, 478
228, 228, 229, 480, 479
229, 229, 230, 481, 480
230, 230, 231, 482, 481
231, 231, 232, 483, 482
232, 232, 233, 484, 483
233, 233, 234, 485, 484
234, 234, 235, 486, 485
235, 235, 236, 487, 486
236, 236, 237, 488, 487
237, 237, 238, 489, 488
238, 238, 239, 490, 489
239, 239, 240, 491, 490
240, 240, 241, 492, 491
241, 241, 242, 493, 492
242, 242, 243, 494, 493
243, 243, 244, 495, 494
244, 244, 245, 496, 495
245, 245, 246, 497, 496
246, 246, 247, 498, 497
247, 247, 248, 499, 498
248, 248, 249, 500, 499
249, 249, 250, 501, 500
250, 250, 251, 502, 501
251, 252, 253, 504, 503
252, 253, 254, 505, 504
253, 254, 255, 506, 505
254, 255, 256, 507, 506
255, 256, 257, 508, 507
256, 257, 258, 509, 508
257, 258, 259, 510, 509
258, 259, 260, 511, 510
259, 260, 261, 512, 511
260, 261, 262, 513, 512
261, 262, 263, 514, 513
262, 263, 264, 515, 514
263, 264, 265, 516, 515
264, 265, 266, 517, 516
265, 266, 267, 518, 517
266, 267, 268, 519, 518
267, 268, 269, 520, 519
268, 269, 270, 521, 520
269, 270, 271, 522, 521
270, 271, 272, 523, 522
271, 272, 273, 524, 523
272, 273, 274, 525, 524
273, 274, 275, 526, 525
274, 275, 276, 527, 526
275, 276, 277, 528, 527
276, 277, 278, 529, 528
277, 278, 279, 530, 529
278, 279, 280, 531, 530
279, 280, 281, 532, 531
280, 281, 282, 533, 532
281, 282, 283, 534, 533
282, 283, 284, 535, 534
283, 284, 285, 536, 535
284, 285, 286, 537, 536
285, 286, 287, 538, 537
286, 287, 288, 539, 538
287, 288, 289, 540, 539
288, 289, 290, 541, 540
289, 290, 291, 542, 541
290, 291, 292, 543, 542
291, 292, 293, 544, 543
292, 293, 294, 545, 544
293, 294, 295, 546, 545
294, 295, 296, 547, 546
295, 296, 297, 548, 547
296, 297, 298, 549, 548
297, 298, 299, 550, 549
298, 299, 300, 551, 550
299, 300, 301, 552, 551
300, 301, 302, 553, 552
301, 302, 303, 554, 553
302, 303, 304, 555, 554
303, 304, 305, 556, 555
304, 305, 306, 557, 556
305, 306, 307, 558, 557
306, 307, 308, 559, 558
307, 308, 309, 560, 559
308, 309, 310, 561, 560
309, 310, 311, 562, 561
310, 311, 312, 563, 562
311, 312, 313, 564, 563
312, 313, 314, 565, 564
313, 314, 315, 566, 565
314, 315, 316, 567, 566
315, 316, 317, 568, 567
316, 317, 318, 569, 568
317, 318, 319, 570, 569
318, 319, 320, 571, 570
319, 320, 321, 572, 571
320, 321, 322, 573, 572
321, 322, 323, 574, 573
322, 323, 324, 575, 574
323, 324, 325, 576, 575
324, 325, 326, 577, 576
325, 326, 327, 578, 577
326, 327, 328, 579, 578
327, 328, 329, 580, 579
328, 329, 330, 581, 580
329, 330, 331, 582, 581
330, 331, 332, 583, 582
331, 332, 333, 584, 583
332, 333, 334, 585, 584
333, 334, 335, 586, 585
334, 335, 336, 587, 586
335, 336, 337, 588, 587
336, 337, 338, 589, 588
337, 338, 339, 590, 589
338, 339, 340, 591, 590
339, 340, 341, 592, 591
340, 341, 342, 593, 592
341, 342, 343, 594, 593
342, 343, 344, 595, 594
343, 344, 345, 596, 595
344, 345, 346, 597, 596
345, 346, 347, 598, 597
346, 347, 348, 599, 598
347, 348, 349, 600, 599
348, 349, 350, 601, 600
349, 350, 351, 602, 601
350, 351, 352, 603, 602
351, 352, 353, 604, 603
352, 353, 354, 605, 604
353, 354, 355, 606, 605
354, 355, 356, 607, 606
355, 356, 357, 608, 607
356, 357, 358, 609, 608
357, 358, 359, 610, 609
358, 359, 360, 611, 610
359, 360, 361, 612, 611
360, 361, 362, 613, 612
361, 362, 363, 614, 613
362, 363, 364, 615, 614
363, 364, 365, 616, 615
364, 365, 366, 617, 616
365, 366, 367, 618, 617
366, 367, 368, 619, 618
367, 368, 369, 620, 619
368, 369, 370, 621, 620
369, 370, 371, 622, 621
370, 371, 372, 623, 622
371, 372, 373, 624, 623
372, 373, 374, 625, 624
373, 374, 375, 626, 625
374, 375, 376, 627, 626
375, 376, 377, 628, 627
376, 377, 378, 629, 628
377, 378, 379, 630, 629
378, 379, 380, 631, 630
379, 380, 381, 632, 631
380, 381, 382, 633, 632
381, 382, 383, 634, 633
382, 383, 384, 635, 634
383, 384, 385, 636, 635
384, 385, 386, 637, 636
385, 386, 387, 638, 637
386, 387, 388, 639, 638
387, 388, 389, 640, 639
388, 389, 390, 641, 640
389, 390, 391, 642, 641
390, 391, 392, 643, 642
391, 392, 393, 644, 643
392, 393, 394, 645, 644
393, 394, 395, 646, 645
394, 395, 396, 647, 646
395, 396, 397, 648, 647
396, 397, 398, 649, 648
397, 398, 399, 650, 649
398, 399, 400, 651, 650
399, 400, 401, 652, 651
400, 401, 402, 653, 652
401, 402, 403, 654, 653
402, 403, 404, 655, 654
403, 404, 405, 656, 655
404, 405, 406, 657, 656
405, 406, 407, 658, 657
406, 407, 408, 659, 658
407, 408, 409, 660, 659
408, 409, 410, 661, 660
409, 410, 411, 662, 661
410, 411, 412, 663, 662
411, 412, 413, 664, 663
412, 413, 414, 665, 664
413, 414, 415, 666, 665
414, 415, 416, 667, 666
415, 416, 417, 668, 667
416, 417, 418, 669, 668
417, 418, 419, 670, 669
418, 419, 420, 671, 670
419, 420, 421, 672, 671
420, 421, 422, 673, 672
421, 422, 423, 674, 673
422, 423, 424, 675, 674
423, 424, 425, 676, 675
424, 425, 426, 677, 676
425, 426, 427, 678, 677
426, 427, 428, 679, 678
427, 428, 429, 680, 679
428, 429, 430, 681, 680
429, 430, 431, 682, 681
430, 431, 432, 683, 682
431, 432, 433, 684, 683
432, 433, 434, 685, 684
433, 434, 435, 686, 685
434, 435, 436, 687, 686
435, 436, 437, 688, 687
436, 437, 438, 689, 688
437, 438, 439, 690, 689
438, 439, 440, 691, 690
439, 440, 441, 692, 691
440, 441, 442, 693, 692
441, 442, 443, 694, 693
442, 443, 444, 695, 694
443, 444, 445, 696, 695
444, 445, 446, 697, 696
445, 446, 447, 698, 697
446, 447, 448, 699, 698
447, 448, 449, 700, 699
448, 449, 450, 701, 700
449, 450, 451, 702, 701
450, 451, 452, 703, 702
451, 452, 453, 704, 703
452, 453, 454, 705, 704
453, 454, 455, 706, 705
454, 455, 456, 707, 706
455, 456, 457, 708, 707
456, 457, 458, 709, 708
457, 458, 459, 710, 709
458, 459, 460, 711, 710
459, 460, 461, 712, 711
460, 461, 462, 713, 712
461, 462, 463, 714, 713
462, 463, 464, 715, 714
463, 464, 465, 716, 715
464, 465, 466, 717, 716
465, 466, 467, 718, 717
466, 467, 468, 719, 718
467, 468, 469, 720, 719
468, 469, 470, 721, 720
469, 470, 471, 722, 721
470, 471, 472, 723, 722
471, 472, 473, 724, 723
472, 473, 474, 725, 724
473, 474, 475, 726, 725
474, 475, 476, 727, 726
475, 476, 477, 728, 727
476, 477, 478, 729, 728
477, 478, 479, 730, 729
478, 479, 480, 731, 730
479, 480, 481, 732, 731
480, 481, 482, 733, 732
481, 482, 483, 734, 733
482, 483, 484, 735, 734
483, 484, 485, 736, 735
484, 485, 486, 737, 736
485, 486, 487, 738, 737
486, 487, 488, 739, 738
487, 488, 489, 740, 739
488, 489, 490, 741, 740
489, 490, 491, 742, 741
490, 491, 492, 743, 742
491, 492, 493, 744, 743
492, 493, 494, 745, 744
493, 494, 495, 746, 745
494, 495, 496, 747, 746
495, 496, 497, 748, 747
496, 497, 498, 749, 748
497, 498, 499, 750, 749
498, 499, 500, 751, 750
499, 500, 501, 752, 751
500, 501, 502, 753, 752
*Nset, nset=Set-1, generate
   1,  753,    1
*Elset, elset=Set-1, generate
   1,  500,    1
** Section: hyper-elastic
*Solid Section, elset=Set-1, material=adhesive-middle
,
*End Part
**  
*Part, name=cohesive
*Node
      1,         -30.,   7.44999981
      2,  -29.7999992,   7.44999981
      3,  -29.6000004,   7.44999981
      4,  -29.3999996,   7.44999981
      5,  -29.2000008,   7.44999981
      6,         -29.,   7.44999981
      7,  -28.7999992,   7.44999981
      8,  -28.6000004,   7.44999981
      9,  -28.3999996,   7.44999981
     10,  -28.2000008,   7.44999981
     11,         -28.,   7.44999981
     12,  -27.7999992,   7.44999981
     13,  -27.6000004,   7.44999981
     14,  -27.3999996,   7.44999981
     15,  -27.2000008,   7.44999981
     16,         -27.,   7.44999981
     17,  -26.7999992,   7.44999981
     18,  -26.6000004,   7.44999981
     19,  -26.3999996,   7.44999981
     20,  -26.2000008,   7.44999981
     21,         -26.,   7.44999981
     22,  -25.7999992,   7.44999981
     23,  -25.6000004,   7.44999981
     24,  -25.3999996,   7.44999981
     25,  -25.2000008,   7.44999981
     26,         -25.,   7.44999981
     27,  -24.7999992,   7.44999981
     28,  -24.6000004,   7.44999981
     29,  -24.3999996,   7.44999981
     30,  -24.2000008,   7.44999981
     31,         -24.,   7.44999981
     32,  -23.7999992,   7.44999981
     33,  -23.6000004,   7.44999981
     34,  -23.3999996,   7.44999981
     35,  -23.2000008,   7.44999981
     36,         -23.,   7.44999981
     37,  -22.7999992,   7.44999981
     38,  -22.6000004,   7.44999981
     39,  -22.3999996,   7.44999981
     40,  -22.2000008,   7.44999981
     41,         -22.,   7.44999981
     42,  -21.7999992,   7.44999981
     43,  -21.6000004,   7.44999981
     44,  -21.3999996,   7.44999981
     45,  -21.2000008,   7.44999981
     46,         -21.,   7.44999981
     47,  -20.7999992,   7.44999981
     48,  -20.6000004,   7.44999981
     49,  -20.3999996,   7.44999981
     50,  -20.2000008,   7.44999981
     51,         -20.,   7.44999981
     52,  -19.7999992,   7.44999981
     53,  -19.6000004,   7.44999981
     54,  -19.3999996,   7.44999981
     55,  -19.2000008,   7.44999981
     56,         -19.,   7.44999981
     57,  -18.7999992,   7.44999981
     58,  -18.6000004,   7.44999981
     59,  -18.3999996,   7.44999981
     60,  -18.2000008,   7.44999981
     61,         -18.,   7.44999981
     62,  -17.7999992,   7.44999981
     63,  -17.6000004,   7.44999981
     64,  -17.3999996,   7.44999981
     65,  -17.2000008,   7.44999981
     66,         -17.,   7.44999981
     67,  -16.7999992,   7.44999981
     68,  -16.6000004,   7.44999981
     69,  -16.3999996,   7.44999981
     70,  -16.2000008,   7.44999981
     71,         -16.,   7.44999981
     72,  -15.8000002,   7.44999981
     73,  -15.6000004,   7.44999981
     74,  -15.3999996,   7.44999981
     75,  -15.1999998,   7.44999981
     76,         -15.,   7.44999981
     77,  -14.8000002,   7.44999981
     78,  -14.6000004,   7.44999981
     79,  -14.3999996,   7.44999981
     80,  -14.1999998,   7.44999981
     81,         -14.,   7.44999981
     82,  -13.8000002,   7.44999981
     83,  -13.6000004,   7.44999981
     84,  -13.3999996,   7.44999981
     85,  -13.1999998,   7.44999981
     86,         -13.,   7.44999981
     87,  -12.8000002,   7.44999981
     88,  -12.6000004,   7.44999981
     89,  -12.3999996,   7.44999981
     90,  -12.1999998,   7.44999981
     91,         -12.,   7.44999981
     92,  -11.8000002,   7.44999981
     93,  -11.6000004,   7.44999981
     94,  -11.3999996,   7.44999981
     95,  -11.1999998,   7.44999981
     96,         -11.,   7.44999981
     97,  -10.8000002,   7.44999981
     98,  -10.6000004,   7.44999981
     99,  -10.3999996,   7.44999981
    100,  -10.1999998,   7.44999981
    101,         -10.,   7.44999981
    102,  -9.80000019,   7.44999981
    103,  -9.60000038,   7.44999981
    104,  -9.39999962,   7.44999981
    105,  -9.19999981,   7.44999981
    106,          -9.,   7.44999981
    107,  -8.80000019,   7.44999981
    108,  -8.60000038,   7.44999981
    109,  -8.39999962,   7.44999981
    110,  -8.19999981,   7.44999981
    111,          -8.,   7.44999981
    112,  -7.80000019,   7.44999981
    113,   -7.5999999,   7.44999981
    114,   -7.4000001,   7.44999981
    115,  -7.19999981,   7.44999981
    116,          -7.,   7.44999981
    117,  -6.80000019,   7.44999981
    118,   -6.5999999,   7.44999981
    119,   -6.4000001,   7.44999981
    120,  -6.19999981,   7.44999981
    121,          -6.,   7.44999981
    122,  -5.80000019,   7.44999981
    123,   -5.5999999,   7.44999981
    124,   -5.4000001,   7.44999981
    125,  -5.19999981,   7.44999981
    126,          -5.,   7.44999981
    127,  -4.80000019,   7.44999981
    128,   -4.5999999,   7.44999981
    129,   -4.4000001,   7.44999981
    130,  -4.19999981,   7.44999981
    131,          -4.,   7.44999981
    132,  -3.79999995,   7.44999981
    133,   -3.5999999,   7.44999981
    134,   -3.4000001,   7.44999981
    135,  -3.20000005,   7.44999981
    136,          -3.,   7.44999981
    137,  -2.79999995,   7.44999981
    138,   -2.5999999,   7.44999981
    139,   -2.4000001,   7.44999981
    140,  -2.20000005,   7.44999981
    141,          -2.,   7.44999981
    142,  -1.79999995,   7.44999981
    143,  -1.60000002,   7.44999981
    144,  -1.39999998,   7.44999981
    145,  -1.20000005,   7.44999981
    146,          -1.,   7.44999981
    147, -0.800000012,   7.44999981
    148, -0.600000024,   7.44999981
    149, -0.400000006,   7.44999981
    150, -0.200000003,   7.44999981
    151,           0.,   7.44999981
    152,  0.200000003,   7.44999981
    153,  0.400000006,   7.44999981
    154,  0.600000024,   7.44999981
    155,  0.800000012,   7.44999981
    156,           1.,   7.44999981
    157,   1.20000005,   7.44999981
    158,   1.39999998,   7.44999981
    159,   1.60000002,   7.44999981
    160,   1.79999995,   7.44999981
    161,           2.,   7.44999981
    162,   2.20000005,   7.44999981
    163,    2.4000001,   7.44999981
    164,    2.5999999,   7.44999981
    165,   2.79999995,   7.44999981
    166,           3.,   7.44999981
    167,   3.20000005,   7.44999981
    168,    3.4000001,   7.44999981
    169,    3.5999999,   7.44999981
    170,   3.79999995,   7.44999981
    171,           4.,   7.44999981
    172,   4.19999981,   7.44999981
    173,    4.4000001,   7.44999981
    174,    4.5999999,   7.44999981
    175,   4.80000019,   7.44999981
    176,           5.,   7.44999981
    177,   5.19999981,   7.44999981
    178,    5.4000001,   7.44999981
    179,    5.5999999,   7.44999981
    180,   5.80000019,   7.44999981
    181,           6.,   7.44999981
    182,   6.19999981,   7.44999981
    183,    6.4000001,   7.44999981
    184,    6.5999999,   7.44999981
    185,   6.80000019,   7.44999981
    186,           7.,   7.44999981
    187,   7.19999981,   7.44999981
    188,    7.4000001,   7.44999981
    189,    7.5999999,   7.44999981
    190,   7.80000019,   7.44999981
    191,           8.,   7.44999981
    192,   8.19999981,   7.44999981
    193,   8.39999962,   7.44999981
    194,   8.60000038,   7.44999981
    195,   8.80000019,   7.44999981
    196,           9.,   7.44999981
    197,   9.19999981,   7.44999981
    198,   9.39999962,   7.44999981
    199,   9.60000038,   7.44999981
    200,   9.80000019,   7.44999981
    201,          10.,   7.44999981
    202,   10.1999998,   7.44999981
    203,   10.3999996,   7.44999981
    204,   10.6000004,   7.44999981
    205,   10.8000002,   7.44999981
    206,          11.,   7.44999981
    207,   11.1999998,   7.44999981
    208,   11.3999996,   7.44999981
    209,   11.6000004,   7.44999981
    210,   11.8000002,   7.44999981
    211,          12.,   7.44999981
    212,   12.1999998,   7.44999981
    213,   12.3999996,   7.44999981
    214,   12.6000004,   7.44999981
    215,   12.8000002,   7.44999981
    216,          13.,   7.44999981
    217,   13.1999998,   7.44999981
    218,   13.3999996,   7.44999981
    219,   13.6000004,   7.44999981
    220,   13.8000002,   7.44999981
    221,          14.,   7.44999981
    222,   14.1999998,   7.44999981
    223,   14.3999996,   7.44999981
    224,   14.6000004,   7.44999981
    225,   14.8000002,   7.44999981
    226,          15.,   7.44999981
    227,   15.1999998,   7.44999981
    228,   15.3999996,   7.44999981
    229,   15.6000004,   7.44999981
    230,   15.8000002,   7.44999981
    231,          16.,   7.44999981
    232,   16.2000008,   7.44999981
    233,   16.3999996,   7.44999981
    234,   16.6000004,   7.44999981
    235,   16.7999992,   7.44999981
    236,          17.,   7.44999981
    237,   17.2000008,   7.44999981
    238,   17.3999996,   7.44999981
    239,   17.6000004,   7.44999981
    240,   17.7999992,   7.44999981
    241,          18.,   7.44999981
    242,   18.2000008,   7.44999981
    243,   18.3999996,   7.44999981
    244,   18.6000004,   7.44999981
    245,   18.7999992,   7.44999981
    246,          19.,   7.44999981
    247,   19.2000008,   7.44999981
    248,   19.3999996,   7.44999981
    249,   19.6000004,   7.44999981
    250,   19.7999992,   7.44999981
    251,          20.,   7.44999981
    252,         -30.,          7.5
    253,  -29.7999992,          7.5
    254,  -29.6000004,          7.5
    255,  -29.3999996,          7.5
    256,  -29.2000008,          7.5
    257,         -29.,          7.5
    258,  -28.7999992,          7.5
    259,  -28.6000004,          7.5
    260,  -28.3999996,          7.5
    261,  -28.2000008,          7.5
    262,         -28.,          7.5
    263,  -27.7999992,          7.5
    264,  -27.6000004,          7.5
    265,  -27.3999996,          7.5
    266,  -27.2000008,          7.5
    267,         -27.,          7.5
    268,  -26.7999992,          7.5
    269,  -26.6000004,          7.5
    270,  -26.3999996,          7.5
    271,  -26.2000008,          7.5
    272,         -26.,          7.5
    273,  -25.7999992,          7.5
    274,  -25.6000004,          7.5
    275,  -25.3999996,          7.5
    276,  -25.2000008,          7.5
    277,         -25.,          7.5
    278,  -24.7999992,          7.5
    279,  -24.6000004,          7.5
    280,  -24.3999996,          7.5
    281,  -24.2000008,          7.5
    282,         -24.,          7.5
    283,  -23.7999992,          7.5
    284,  -23.6000004,          7.5
    285,  -23.3999996,          7.5
    286,  -23.2000008,          7.5
    287,         -23.,          7.5
    288,  -22.7999992,          7.5
    289,  -22.6000004,          7.5
    290,  -22.3999996,          7.5
    291,  -22.2000008,          7.5
    292,         -22.,          7.5
    293,  -21.7999992,          7.5
    294,  -21.6000004,          7.5
    295,  -21.3999996,          7.5
    296,  -21.2000008,          7.5
    297,         -21.,          7.5
    298,  -20.7999992,          7.5
    299,  -20.6000004,          7.5
    300,  -20.3999996,          7.5
    301,  -20.2000008,          7.5
    302,         -20.,          7.5
    303,  -19.7999992,          7.5
    304,  -19.6000004,          7.5
    305,  -19.3999996,          7.5
    306,  -19.2000008,          7.5
    307,         -19.,          7.5
    308,  -18.7999992,          7.5
    309,  -18.6000004,          7.5
    310,  -18.3999996,          7.5
    311,  -18.2000008,          7.5
    312,         -18.,          7.5
    313,  -17.7999992,          7.5
    314,  -17.6000004,          7.5
    315,  -17.3999996,          7.5
    316,  -17.2000008,          7.5
    317,         -17.,          7.5
    318,  -16.7999992,          7.5
    319,  -16.6000004,          7.5
    320,  -16.3999996,          7.5
    321,  -16.2000008,          7.5
    322,         -16.,          7.5
    323,  -15.8000002,          7.5
    324,  -15.6000004,          7.5
    325,  -15.3999996,          7.5
    326,  -15.1999998,          7.5
    327,         -15.,          7.5
    328,  -14.8000002,          7.5
    329,  -14.6000004,          7.5
    330,  -14.3999996,          7.5
    331,  -14.1999998,          7.5
    332,         -14.,          7.5
    333,  -13.8000002,          7.5
    334,  -13.6000004,          7.5
    335,  -13.3999996,          7.5
    336,  -13.1999998,          7.5
    337,         -13.,          7.5
    338,  -12.8000002,          7.5
    339,  -12.6000004,          7.5
    340,  -12.3999996,          7.5
    341,  -12.1999998,          7.5
    342,         -12.,          7.5
    343,  -11.8000002,          7.5
    344,  -11.6000004,          7.5
    345,  -11.3999996,          7.5
    346,  -11.1999998,          7.5
    347,         -11.,          7.5
    348,  -10.8000002,          7.5
    349,  -10.6000004,          7.5
    350,  -10.3999996,          7.5
    351,  -10.1999998,          7.5
    352,         -10.,          7.5
    353,  -9.80000019,          7.5
    354,  -9.60000038,          7.5
    355,  -9.39999962,          7.5
    356,  -9.19999981,          7.5
    357,          -9.,          7.5
    358,  -8.80000019,          7.5
    359,  -8.60000038,          7.5
    360,  -8.39999962,          7.5
    361,  -8.19999981,          7.5
    362,          -8.,          7.5
    363,  -7.80000019,          7.5
    364,   -7.5999999,          7.5
    365,   -7.4000001,          7.5
    366,  -7.19999981,          7.5
    367,          -7.,          7.5
    368,  -6.80000019,          7.5
    369,   -6.5999999,          7.5
    370,   -6.4000001,          7.5
    371,  -6.19999981,          7.5
    372,          -6.,          7.5
    373,  -5.80000019,          7.5
    374,   -5.5999999,          7.5
    375,   -5.4000001,          7.5
    376,  -5.19999981,          7.5
    377,          -5.,          7.5
    378,  -4.80000019,          7.5
    379,   -4.5999999,          7.5
    380,   -4.4000001,          7.5
    381,  -4.19999981,          7.5
    382,          -4.,          7.5
    383,  -3.79999995,          7.5
    384,   -3.5999999,          7.5
    385,   -3.4000001,          7.5
    386,  -3.20000005,          7.5
    387,          -3.,          7.5
    388,  -2.79999995,          7.5
    389,   -2.5999999,          7.5
    390,   -2.4000001,          7.5
    391,  -2.20000005,          7.5
    392,          -2.,          7.5
    393,  -1.79999995,          7.5
    394,  -1.60000002,          7.5
    395,  -1.39999998,          7.5
    396,  -1.20000005,          7.5
    397,          -1.,          7.5
    398, -0.800000012,          7.5
    399, -0.600000024,          7.5
    400, -0.400000006,          7.5
    401, -0.200000003,          7.5
    402,           0.,          7.5
    403,  0.200000003,          7.5
    404,  0.400000006,          7.5
    405,  0.600000024,          7.5
    406,  0.800000012,          7.5
    407,           1.,          7.5
    408,   1.20000005,          7.5
    409,   1.39999998,          7.5
    410,   1.60000002,          7.5
    411,   1.79999995,          7.5
    412,           2.,          7.5
    413,   2.20000005,          7.5
    414,    2.4000001,          7.5
    415,    2.5999999,          7.5
    416,   2.79999995,          7.5
    417,           3.,          7.5
    418,   3.20000005,          7.5
    419,    3.4000001,          7.5
    420,    3.5999999,          7.5
    421,   3.79999995,          7.5
    422,           4.,          7.5
    423,   4.19999981,          7.5
    424,    4.4000001,          7.5
    425,    4.5999999,          7.5
    426,   4.80000019,          7.5
    427,           5.,          7.5
    428,   5.19999981,          7.5
    429,    5.4000001,          7.5
    430,    5.5999999,          7.5
    431,   5.80000019,          7.5
    432,           6.,          7.5
    433,   6.19999981,          7.5
    434,    6.4000001,          7.5
    435,    6.5999999,          7.5
    436,   6.80000019,          7.5
    437,           7.,          7.5
    438,   7.19999981,          7.5
    439,    7.4000001,          7.5
    440,    7.5999999,          7.5
    441,   7.80000019,          7.5
    442,           8.,          7.5
    443,   8.19999981,          7.5
    444,   8.39999962,          7.5
    445,   8.60000038,          7.5
    446,   8.80000019,          7.5
    447,           9.,          7.5
    448,   9.19999981,          7.5
    449,   9.39999962,          7.5
    450,   9.60000038,          7.5
    451,   9.80000019,          7.5
    452,          10.,          7.5
    453,   10.1999998,          7.5
    454,   10.3999996,          7.5
    455,   10.6000004,          7.5
    456,   10.8000002,          7.5
    457,          11.,          7.5
    458,   11.1999998,          7.5
    459,   11.3999996,          7.5
    460,   11.6000004,          7.5
    461,   11.8000002,          7.5
    462,          12.,          7.5
    463,   12.1999998,          7.5
    464,   12.3999996,          7.5
    465,   12.6000004,          7.5
    466,   12.8000002,          7.5
    467,          13.,          7.5
    468,   13.1999998,          7.5
    469,   13.3999996,          7.5
    470,   13.6000004,          7.5
    471,   13.8000002,          7.5
    472,          14.,          7.5
    473,   14.1999998,          7.5
    474,   14.3999996,          7.5
    475,   14.6000004,          7.5
    476,   14.8000002,          7.5
    477,          15.,          7.5
    478,   15.1999998,          7.5
    479,   15.3999996,          7.5
    480,   15.6000004,          7.5
    481,   15.8000002,          7.5
    482,          16.,          7.5
    483,   16.2000008,          7.5
    484,   16.3999996,          7.5
    485,   16.6000004,          7.5
    486,   16.7999992,          7.5
    487,          17.,          7.5
    488,   17.2000008,          7.5
    489,   17.3999996,          7.5
    490,   17.6000004,          7.5
    491,   17.7999992,          7.5
    492,          18.,          7.5
    493,   18.2000008,          7.5
    494,   18.3999996,          7.5
    495,   18.6000004,          7.5
    496,   18.7999992,          7.5
    497,          19.,          7.5
    498,   19.2000008,          7.5
    499,   19.3999996,          7.5
    500,   19.6000004,          7.5
    501,   19.7999992,          7.5
    502,          20.,          7.5
*Element, type=COH2D4
  1,   1,   2, 253, 252
  2,   2,   3, 254, 253
  3,   3,   4, 255, 254
  4,   4,   5, 256, 255
  5,   5,   6, 257, 256
  6,   6,   7, 258, 257
  7,   7,   8, 259, 258
  8,   8,   9, 260, 259
  9,   9,  10, 261, 260
 10,  10,  11, 262, 261
 11,  11,  12, 263, 262
 12,  12,  13, 264, 263
 13,  13,  14, 265, 264
 14,  14,  15, 266, 265
 15,  15,  16, 267, 266
 16,  16,  17, 268, 267
 17,  17,  18, 269, 268
 18,  18,  19, 270, 269
 19,  19,  20, 271, 270
 20,  20,  21, 272, 271
 21,  21,  22, 273, 272
 22,  22,  23, 274, 273
 23,  23,  24, 275, 274
 24,  24,  25, 276, 275
 25,  25,  26, 277, 276
 26,  26,  27, 278, 277
 27,  27,  28, 279, 278
 28,  28,  29, 280, 279
 29,  29,  30, 281, 280
 30,  30,  31, 282, 281
 31,  31,  32, 283, 282
 32,  32,  33, 284, 283
 33,  33,  34, 285, 284
 34,  34,  35, 286, 285
 35,  35,  36, 287, 286
 36,  36,  37, 288, 287
 37,  37,  38, 289, 288
 38,  38,  39, 290, 289
 39,  39,  40, 291, 290
 40,  40,  41, 292, 291
 41,  41,  42, 293, 292
 42,  42,  43, 294, 293
 43,  43,  44, 295, 294
 44,  44,  45, 296, 295
 45,  45,  46, 297, 296
 46,  46,  47, 298, 297
 47,  47,  48, 299, 298
 48,  48,  49, 300, 299
 49,  49,  50, 301, 300
 50,  50,  51, 302, 301
 51,  51,  52, 303, 302
 52,  52,  53, 304, 303
 53,  53,  54, 305, 304
 54,  54,  55, 306, 305
 55,  55,  56, 307, 306
 56,  56,  57, 308, 307
 57,  57,  58, 309, 308
 58,  58,  59, 310, 309
 59,  59,  60, 311, 310
 60,  60,  61, 312, 311
 61,  61,  62, 313, 312
 62,  62,  63, 314, 313
 63,  63,  64, 315, 314
 64,  64,  65, 316, 315
 65,  65,  66, 317, 316
 66,  66,  67, 318, 317
 67,  67,  68, 319, 318
 68,  68,  69, 320, 319
 69,  69,  70, 321, 320
 70,  70,  71, 322, 321
 71,  71,  72, 323, 322
 72,  72,  73, 324, 323
 73,  73,  74, 325, 324
 74,  74,  75, 326, 325
 75,  75,  76, 327, 326
 76,  76,  77, 328, 327
 77,  77,  78, 329, 328
 78,  78,  79, 330, 329
 79,  79,  80, 331, 330
 80,  80,  81, 332, 331
 81,  81,  82, 333, 332
 82,  82,  83, 334, 333
 83,  83,  84, 335, 334
 84,  84,  85, 336, 335
 85,  85,  86, 337, 336
 86,  86,  87, 338, 337
 87,  87,  88, 339, 338
 88,  88,  89, 340, 339
 89,  89,  90, 341, 340
 90,  90,  91, 342, 341
 91,  91,  92, 343, 342
 92,  92,  93, 344, 343
 93,  93,  94, 345, 344
 94,  94,  95, 346, 345
 95,  95,  96, 347, 346
 96,  96,  97, 348, 347
 97,  97,  98, 349, 348
 98,  98,  99, 350, 349
 99,  99, 100, 351, 350
100, 100, 101, 352, 351
101, 101, 102, 353, 352
102, 102, 103, 354, 353
103, 103, 104, 355, 354
104, 104, 105, 356, 355
105, 105, 106, 357, 356
106, 106, 107, 358, 357
107, 107, 108, 359, 358
108, 108, 109, 360, 359
109, 109, 110, 361, 360
110, 110, 111, 362, 361
111, 111, 112, 363, 362
112, 112, 113, 364, 363
113, 113, 114, 365, 364
114, 114, 115, 366, 365
115, 115, 116, 367, 366
116, 116, 117, 368, 367
117, 117, 118, 369, 368
118, 118, 119, 370, 369
119, 119, 120, 371, 370
120, 120, 121, 372, 371
121, 121, 122, 373, 372
122, 122, 123, 374, 373
123, 123, 124, 375, 374
124, 124, 125, 376, 375
125, 125, 126, 377, 376
126, 126, 127, 378, 377
127, 127, 128, 379, 378
128, 128, 129, 380, 379
129, 129, 130, 381, 380
130, 130, 131, 382, 381
131, 131, 132, 383, 382
132, 132, 133, 384, 383
133, 133, 134, 385, 384
134, 134, 135, 386, 385
135, 135, 136, 387, 386
136, 136, 137, 388, 387
137, 137, 138, 389, 388
138, 138, 139, 390, 389
139, 139, 140, 391, 390
140, 140, 141, 392, 391
141, 141, 142, 393, 392
142, 142, 143, 394, 393
143, 143, 144, 395, 394
144, 144, 145, 396, 395
145, 145, 146, 397, 396
146, 146, 147, 398, 397
147, 147, 148, 399, 398
148, 148, 149, 400, 399
149, 149, 150, 401, 400
150, 150, 151, 402, 401
151, 151, 152, 403, 402
152, 152, 153, 404, 403
153, 153, 154, 405, 404
154, 154, 155, 406, 405
155, 155, 156, 407, 406
156, 156, 157, 408, 407
157, 157, 158, 409, 408
158, 158, 159, 410, 409
159, 159, 160, 411, 410
160, 160, 161, 412, 411
161, 161, 162, 413, 412
162, 162, 163, 414, 413
163, 163, 164, 415, 414
164, 164, 165, 416, 415
165, 165, 166, 417, 416
166, 166, 167, 418, 417
167, 167, 168, 419, 418
168, 168, 169, 420, 419
169, 169, 170, 421, 420
170, 170, 171, 422, 421
171, 171, 172, 423, 422
172, 172, 173, 424, 423
173, 173, 174, 425, 424
174, 174, 175, 426, 425
175, 175, 176, 427, 426
176, 176, 177, 428, 427
177, 177, 178, 429, 428
178, 178, 179, 430, 429
179, 179, 180, 431, 430
180, 180, 181, 432, 431
181, 181, 182, 433, 432
182, 182, 183, 434, 433
183, 183, 184, 435, 434
184, 184, 185, 436, 435
185, 185, 186, 437, 436
186, 186, 187, 438, 437
187, 187, 188, 439, 438
188, 188, 189, 440, 439
189, 189, 190, 441, 440
190, 190, 191, 442, 441
191, 191, 192, 443, 442
192, 192, 193, 444, 443
193, 193, 194, 445, 444
194, 194, 195, 446, 445
195, 195, 196, 447, 446
196, 196, 197, 448, 447
197, 197, 198, 449, 448
198, 198, 199, 450, 449
199, 199, 200, 451, 450
200, 200, 201, 452, 451
201, 201, 202, 453, 452
202, 202, 203, 454, 453
203, 203, 204, 455, 454
204, 204, 205, 456, 455
205, 205, 206, 457, 456
206, 206, 207, 458, 457
207, 207, 208, 459, 458
208, 208, 209, 460, 459
209, 209, 210, 461, 460
210, 210, 211, 462, 461
211, 211, 212, 463, 462
212, 212, 213, 464, 463
213, 213, 214, 465, 464
214, 214, 215, 466, 465
215, 215, 216, 467, 466
216, 216, 217, 468, 467
217, 217, 218, 469, 468
218, 218, 219, 470, 469
219, 219, 220, 471, 470
220, 220, 221, 472, 471
221, 221, 222, 473, 472
222, 222, 223, 474, 473
223, 223, 224, 475, 474
224, 224, 225, 476, 475
225, 225, 226, 477, 476
226, 226, 227, 478, 477
227, 227, 228, 479, 478
228, 228, 229, 480, 479
229, 229, 230, 481, 480
230, 230, 231, 482, 481
231, 231, 232, 483, 482
232, 232, 233, 484, 483
233, 233, 234, 485, 484
234, 234, 235, 486, 485
235, 235, 236, 487, 486
236, 236, 237, 488, 487
237, 237, 238, 489, 488
238, 238, 239, 490, 489
239, 239, 240, 491, 490
240, 240, 241, 492, 491
241, 241, 242, 493, 492
242, 242, 243, 494, 493
243, 243, 244, 495, 494
244, 244, 245, 496, 495
245, 245, 246, 497, 496
246, 246, 247, 498, 497
247, 247, 248, 499, 498
248, 248, 249, 500, 499
249, 249, 250, 501, 500
250, 250, 251, 502, 501
*Nset, nset=Set-1, generate
   1,  502,    1
*Elset, elset=Set-1, generate
   1,  250,    1
*Nset, nset=Set-2, generate
   1,  502,    1
*Elset, elset=Set-2, generate
   1,  250,    1
** Section: cohesive
*Cohesive Section, elset=Set-2, controls=EC-1, material=cohesive, response=TRACTION SEPARATION, thickness=GEOMETRY
, 
*End Part
**  
**
** ASSEMBLY
**
*Assembly, name=Assembly
**  
*Instance, name=Rigid_Substrate-1, part=Rigid_Substrate
*End Instance
**  
*Instance, name=Thin_Film-1, part=Thin_Film
        -14.,          7.3,           0.
*End Instance
**  
*Instance, name=adhesive-middle-1, part=adhesive-middle
          5.,         4.55,           0.
*End Instance
**  
*Instance, name=cohesive-1, part=cohesive
        -20.,        -0.45,           0.
*End Instance
**  
*Instance, name=cohesive-2, part=cohesive
        -20.,         -0.2,           0.
*End Instance
**  
*Node
      1,          55.,          3.5,           0.
*Node
      2,  0.800000012,   15.3000002,           0.
*Nset, nset=LOAD-POINT
 2,
*Nset, nset=Set-4
 1,
*Nset, nset=Set-5
 2,
*Nset, nset=Set-6, instance=Rigid_Substrate-1, generate
    1,  1503,     1
*Elset, elset=Set-6, instance=Rigid_Substrate-1, generate
    1,  1000,     1
*Nset, nset=Set-7
 1,
*Nset, nset=m_Set-2
 1,
*Nset, nset=m_Set-3
 2,
*Elset, elset=_m_Surf-1_S2, internal, instance=Rigid_Substrate-1, generate
   2,  500,    2
*Surface, type=ELEMENT, name=m_Surf-1
_m_Surf-1_S2, S2
*Elset, elset=_m_Surf-3_S3, internal, instance=adhesive-middle-1, generate
 251,  500,    1
*Surface, type=ELEMENT, name=m_Surf-3
_m_Surf-3_S3, S3
*Elset, elset=_m_Surf-5_S1, internal, instance=adhesive-middle-1, generate
   1,  250,    1
*Surface, type=ELEMENT, name=m_Surf-5
_m_Surf-5_S1, S1
*Elset, elset=_m_Surf-7_S4, internal, instance=Thin_Film-1, generate
  199,  1693,     6
*Surface, type=ELEMENT, name=m_Surf-7
_m_Surf-7_S4, S4
*Elset, elset=_s_Surf-1_S1, internal, instance=cohesive-1, generate
   1,  250,    1
*Surface, type=ELEMENT, name=s_Surf-1
_s_Surf-1_S1, S1
*Elset, elset=_s_Surf-3_S3, internal, instance=cohesive-1, generate
   1,  250,    1
*Surface, type=ELEMENT, name=s_Surf-3
_s_Surf-3_S3, S3
*Elset, elset=_s_Surf-5_S1, internal, instance=cohesive-2, generate
   1,  250,    1
*Surface, type=ELEMENT, name=s_Surf-5
_s_Surf-5_S1, S1
*Elset, elset=_s_Surf-7_S3, internal, instance=cohesive-2, generate
   1,  250,    1
*Surface, type=ELEMENT, name=s_Surf-7
_s_Surf-7_S3, S3
*Elset, elset=_s_Surf-9_S3, internal, instance=Rigid_Substrate-1
  499,  500,  999, 1000
*Surface, type=ELEMENT, name=s_Surf-9
_s_Surf-9_S3, S3
*Elset, elset=_s_Surf-10_S3, internal, instance=Thin_Film-1, generate
 145,  150,    1
*Surface, type=ELEMENT, name=s_Surf-10
_s_Surf-10_S3, S3
** Constraint: Constraint-1
*Tie, name=Constraint-1, adjust=yes
s_Surf-1, m_Surf-1
** Constraint: Constraint-2
*Tie, name=Constraint-2, adjust=yes
s_Surf-3, m_Surf-3
** Constraint: Constraint-3
*Tie, name=Constraint-3, adjust=yes
s_Surf-5, m_Surf-5
** Constraint: Constraint-4
*Tie, name=Constraint-4, adjust=yes
s_Surf-7, m_Surf-7
** Constraint: Constraint-5
*Coupling, constraint name=Constraint-5, ref node=m_Set-2, surface=s_Surf-9
*Kinematic
** Constraint: Constraint-6
*Coupling, constraint name=Constraint-6, ref node=m_Set-3, surface=s_Surf-10
*Kinematic
*End Assembly
** 
** ELEMENT CONTROLS
** 
*Section Controls, name=EC-1, ELEMENT DELETION=YES, MAX DEGRADATION=1.
1., 1., 1.
*Amplitude, name=Amp-1
             0.,              0.,              1.,              1.
** 
** MATERIALS
** 
*Material, name=Adherend
*Density
 2.7e-09,
*Elastic
70000., 0.3
*Material, name=Adhesive
*Density
 1.35e-09,
*Elastic
990., 0.33
*Material, name=adhesive-middle
*Density
 1.35e-09,
*Hyperelastic, arruda-boyce
 1.016, 1867., 0.152
*Material, name=cohesive
*Damage Initiation, criterion=MAXS
 3.62, 2.64, 2.64
*Damage Evolution, type=ENERGY, mixed mode behavior=BK, power=1.75
1., 0.3, 0.3
*Damage Stabilization
0.001
*Density
 1.35e-09,
*Elastic, type=TRACTION
 3.06, 1.06, 1.06
** 
** BOUNDARY CONDITIONS
** 
** Name: BC-3 Type: Symmetry/Antisymmetry/Encastre
*Boundary
Set-6, YSYMM
** ----------------------------------------------------------------
** 
** STEP: Step-1
** 
*Step, name=Step-1, nlgeom=YES
*Dynamic, Explicit
, 1.
*Bulk Viscosity
0.06, 1.2
** Mass Scaling: Semi-Automatic
**               Whole Model
*Fixed Mass Scaling, factor=1.2
** 
** BOUNDARY CONDITIONS
** 
** Name: BC-2 Type: Displacement/Rotation
*Boundary, amplitude=Amp-1
Set-5, 1, 1
Set-5, 2, 2, 50.
Set-5, 6, 6
** Name: BC-4 Type: Displacement/Rotation
*Boundary, amplitude=Amp-1
Set-7, 1, 1, 50.
Set-7, 2, 2
Set-7, 6, 6
** 
** OUTPUT REQUESTS
** 
*Restart, write, number interval=1, time marks=NO
** 
** FIELD OUTPUT: F-Output-1
** 
*Output, field
*Node Output, variable=PRESELECT
*Element Output, directions=YES
EVF, LE, PE, PEEQ, PEEQVAVG, PEVAVG, S, SDEG, STATUS, SVAVG
*Contact Output, variable=PRESELECT
** 
** HISTORY OUTPUT: H-Output-1
** 
*Output, history
*Node Output, nset=LOAD-POINT
RF2, U2
*End Step
