*Heading
** Job name: Job-38-COH_ELS-NEW Model name: Model-STATIC_GEN-COH_ELES
** Generated by: Abaqus/CAE 2025
*Preprint, echo=NO, model=NO, history=NO, contact=NO
**
** PARTS
**
*Part, name=Rigid_Substrate
*Node
      1,           0.,           0.
      2,           0.,           7.
      3,         -50.,           7.
      4,         -50.,           0.
      5,          50.,           0.
      6,          50.,           7.
      7,           0.,   5.83333349
      8, -0.100000001,           7.
      9, -0.200000003,           7.
     10, -0.300000012,           7.
     11, -0.400000006,           7.
     12,         -0.5,           7.
     13, -0.600000024,           7.
     14, -0.699999988,           7.
     15, -0.800000012,           7.
     16, -0.899999976,           7.
     17,          -1.,           7.
     18,  -1.10000002,           7.
     19,  -1.20000005,           7.
     20,  -1.29999995,           7.
     21,  -1.39999998,           7.
     22,         -1.5,           7.
     23,  -1.60000002,           7.
     24,  -1.70000005,           7.
     25,  -1.79999995,           7.
     26,  -1.89999998,           7.
     27,          -2.,           7.
     28,   -2.0999999,           7.
     29,  -2.20000005,           7.
     30,  -2.29999995,           7.
     31,   -2.4000001,           7.
     32,         -2.5,           7.
     33,   -2.5999999,           7.
     34,  -2.70000005,           7.
     35,  -2.79999995,           7.
     36,   -2.9000001,           7.
     37,          -3.,           7.
     38,   -3.0999999,           7.
     39,  -3.20000005,           7.
     40,  -3.29999995,           7.
     41,   -3.4000001,           7.
     42,         -3.5,           7.
     43,   -3.5999999,           7.
     44,  -3.70000005,           7.
     45,  -3.79999995,           7.
     46,   -3.9000001,           7.
     47,          -4.,           7.
     48,   -4.0999999,           7.
     49,  -4.19999981,           7.
     50,  -4.30000019,           7.
     51,   -4.4000001,           7.
     52,         -4.5,           7.
     53,   -4.5999999,           7.
     54,  -4.69999981,           7.
     55,  -4.80000019,           7.
     56,   -4.9000001,           7.
     57,          -5.,           7.
     58,   -5.0999999,           7.
     59,  -5.19999981,           7.
     60,  -5.30000019,           7.
     61,   -5.4000001,           7.
     62,         -5.5,           7.
     63,   -5.5999999,           7.
     64,  -5.69999981,           7.
     65,  -5.80000019,           7.
     66,   -5.9000001,           7.
     67,          -6.,           7.
     68,   -6.0999999,           7.
     69,  -6.19999981,           7.
     70,  -6.30000019,           7.
     71,   -6.4000001,           7.
     72,         -6.5,           7.
     73,   -6.5999999,           7.
     74,  -6.69999981,           7.
     75,  -6.80000019,           7.
     76,   -6.9000001,           7.
     77,          -7.,           7.
     78,   -7.0999999,           7.
     79,  -7.19999981,           7.
     80,  -7.30000019,           7.
     81,   -7.4000001,           7.
     82,         -7.5,           7.
     83,   -7.5999999,           7.
     84,  -7.69999981,           7.
     85,  -7.80000019,           7.
     86,   -7.9000001,           7.
     87,          -8.,           7.
     88,  -8.10000038,           7.
     89,  -8.19999981,           7.
     90,  -8.30000019,           7.
     91,  -8.39999962,           7.
     92,         -8.5,           7.
     93,  -8.60000038,           7.
     94,  -8.69999981,           7.
     95,  -8.80000019,           7.
     96,  -8.89999962,           7.
     97,          -9.,           7.
     98,  -9.10000038,           7.
     99,  -9.19999981,           7.
    100,  -9.30000019,           7.
    101,  -9.39999962,           7.
    102,         -9.5,           7.
    103,  -9.60000038,           7.
    104,  -9.69999981,           7.
    105,  -9.80000019,           7.
    106,  -9.89999962,           7.
    107,         -10.,           7.
    108,  -10.1000004,           7.
    109,  -10.1999998,           7.
    110,  -10.3000002,           7.
    111,  -10.3999996,           7.
    112,        -10.5,           7.
    113,  -10.6000004,           7.
    114,  -10.6999998,           7.
    115,  -10.8000002,           7.
    116,  -10.8999996,           7.
    117,         -11.,           7.
    118,  -11.1000004,           7.
    119,  -11.1999998,           7.
    120,  -11.3000002,           7.
    121,  -11.3999996,           7.
    122,        -11.5,           7.
    123,  -11.6000004,           7.
    124,  -11.6999998,           7.
    125,  -11.8000002,           7.
    126,  -11.8999996,           7.
    127,         -12.,           7.
    128,  -12.1000004,           7.
    129,  -12.1999998,           7.
    130,  -12.3000002,           7.
    131,  -12.3999996,           7.
    132,        -12.5,           7.
    133,  -12.6000004,           7.
    134,  -12.6999998,           7.
    135,  -12.8000002,           7.
    136,  -12.8999996,           7.
    137,         -13.,           7.
    138,  -13.1000004,           7.
    139,  -13.1999998,           7.
    140,  -13.3000002,           7.
    141,  -13.3999996,           7.
    142,        -13.5,           7.
    143,  -13.6000004,           7.
    144,  -13.6999998,           7.
    145,  -13.8000002,           7.
    146,  -13.8999996,           7.
    147,         -14.,           7.
    148,  -14.1000004,           7.
    149,  -14.1999998,           7.
    150,  -14.3000002,           7.
    151,  -14.3999996,           7.
    152,        -14.5,           7.
    153,  -14.6000004,           7.
    154,  -14.6999998,           7.
    155,  -14.8000002,           7.
    156,  -14.8999996,           7.
    157,         -15.,           7.
    158,  -15.1000004,           7.
    159,  -15.1999998,           7.
    160,  -15.3000002,           7.
    161,  -15.3999996,           7.
    162,        -15.5,           7.
    163,  -15.6000004,           7.
    164,  -15.6999998,           7.
    165,  -15.8000002,           7.
    166,  -15.8999996,           7.
    167,         -16.,           7.
    168,  -16.1000004,           7.
    169,  -16.2000008,           7.
    170,  -16.2999992,           7.
    171,  -16.3999996,           7.
    172,        -16.5,           7.
    173,  -16.6000004,           7.
    174,  -16.7000008,           7.
    175,  -16.7999992,           7.
    176,  -16.8999996,           7.
    177,         -17.,           7.
    178,  -17.1000004,           7.
    179,  -17.2000008,           7.
    180,  -17.2999992,           7.
    181,  -17.3999996,           7.
    182,        -17.5,           7.
    183,  -17.6000004,           7.
    184,  -17.7000008,           7.
    185,  -17.7999992,           7.
    186,  -17.8999996,           7.
    187,         -18.,           7.
    188,  -18.1000004,           7.
    189,  -18.2000008,           7.
    190,  -18.2999992,           7.
    191,  -18.3999996,           7.
    192,        -18.5,           7.
    193,  -18.6000004,           7.
    194,  -18.7000008,           7.
    195,  -18.7999992,           7.
    196,  -18.8999996,           7.
    197,         -19.,           7.
    198,  -19.1000004,           7.
    199,  -19.2000008,           7.
    200,  -19.2999992,           7.
    201,  -19.3999996,           7.
    202,        -19.5,           7.
    203,  -19.6000004,           7.
    204,  -19.7000008,           7.
    205,  -19.7999992,           7.
    206,  -19.8999996,           7.
    207,         -20.,           7.
    208,  -20.1000004,           7.
    209,  -20.2000008,           7.
    210,  -20.2999992,           7.
    211,  -20.3999996,           7.
    212,        -20.5,           7.
    213,  -20.6000004,           7.
    214,  -20.7000008,           7.
    215,  -20.7999992,           7.
    216,  -20.8999996,           7.
    217,         -21.,           7.
    218,  -21.1000004,           7.
    219,  -21.2000008,           7.
    220,  -21.2999992,           7.
    221,  -21.3999996,           7.
    222,        -21.5,           7.
    223,  -21.6000004,           7.
    224,  -21.7000008,           7.
    225,  -21.7999992,           7.
    226,  -21.8999996,           7.
    227,         -22.,           7.
    228,  -22.1000004,           7.
    229,  -22.2000008,           7.
    230,  -22.2999992,           7.
    231,  -22.3999996,           7.
    232,        -22.5,           7.
    233,  -22.6000004,           7.
    234,  -22.7000008,           7.
    235,  -22.7999992,           7.
    236,  -22.8999996,           7.
    237,         -23.,           7.
    238,  -23.1000004,           7.
    239,  -23.2000008,           7.
    240,  -23.2999992,           7.
    241,  -23.3999996,           7.
    242,        -23.5,           7.
    243,  -23.6000004,           7.
    244,  -23.7000008,           7.
    245,  -23.7999992,           7.
    246,  -23.8999996,           7.
    247,         -24.,           7.
    248,  -24.1000004,           7.
    249,  -24.2000008,           7.
    250,  -24.2999992,           7.
    251,  -24.3999996,           7.
    252,        -24.5,           7.
    253,  -24.6000004,           7.
    254,  -24.7000008,           7.
    255,  -24.7999992,           7.
    256,  -24.8999996,           7.
    257,         -25.,           7.
    258,  -25.1000004,           7.
    259,  -25.2000008,           7.
    260,  -25.2999992,           7.
    261,  -25.3999996,           7.
    262,        -25.5,           7.
    263,  -25.6000004,           7.
    264,  -25.7000008,           7.
    265,  -25.7999992,           7.
    266,  -25.8999996,           7.
    267,         -26.,           7.
    268,  -26.1000004,           7.
    269,  -26.2000008,           7.
    270,  -26.2999992,           7.
    271,  -26.3999996,           7.
    272,        -26.5,           7.
    273,  -26.6000004,           7.
    274,  -26.7000008,           7.
    275,  -26.7999992,           7.
    276,  -26.8999996,           7.
    277,         -27.,           7.
    278,  -27.1000004,           7.
    279,  -27.2000008,           7.
    280,  -27.2999992,           7.
    281,  -27.3999996,           7.
    282,        -27.5,           7.
    283,  -27.6000004,           7.
    284,  -27.7000008,           7.
    285,  -27.7999992,           7.
    286,  -27.8999996,           7.
    287,         -28.,           7.
    288,  -28.1000004,           7.
    289,  -28.2000008,           7.
    290,  -28.2999992,           7.
    291,  -28.3999996,           7.
    292,        -28.5,           7.
    293,  -28.6000004,           7.
    294,  -28.7000008,           7.
    295,  -28.7999992,           7.
    296,  -28.8999996,           7.
    297,         -29.,           7.
    298,  -29.1000004,           7.
    299,  -29.2000008,           7.
    300,  -29.2999992,           7.
    301,  -29.3999996,           7.
    302,        -29.5,           7.
    303,  -29.6000004,           7.
    304,  -29.7000008,           7.
    305,  -29.7999992,           7.
    306,  -29.8999996,           7.
    307,         -30.,           7.
    308,  -30.1000004,           7.
    309,  -30.2000008,           7.
    310,  -30.2999992,           7.
    311,  -30.3999996,           7.
    312,        -30.5,           7.
    313,  -30.6000004,           7.
    314,  -30.7000008,           7.
    315,  -30.7999992,           7.
    316,  -30.8999996,           7.
    317,         -31.,           7.
    318,  -31.1000004,           7.
    319,  -31.2000008,           7.
    320,  -31.2999992,           7.
    321,  -31.3999996,           7.
    322,        -31.5,           7.
    323,  -31.6000004,           7.
    324,  -31.7000008,           7.
    325,  -31.7999992,           7.
    326,  -31.8999996,           7.
    327,         -32.,           7.
    328,  -32.0999985,           7.
    329,  -32.2000008,           7.
    330,  -32.2999992,           7.
    331,  -32.4000015,           7.
    332,        -32.5,           7.
    333,  -32.5999985,           7.
    334,  -32.7000008,           7.
    335,  -32.7999992,           7.
    336,  -32.9000015,           7.
    337,         -33.,           7.
    338,  -33.0999985,           7.
    339,  -33.2000008,           7.
    340,  -33.2999992,           7.
    341,  -33.4000015,           7.
    342,        -33.5,           7.
    343,  -33.5999985,           7.
    344,  -33.7000008,           7.
    345,  -33.7999992,           7.
    346,  -33.9000015,           7.
    347,         -34.,           7.
    348,  -34.0999985,           7.
    349,  -34.2000008,           7.
    350,  -34.2999992,           7.
    351,  -34.4000015,           7.
    352,        -34.5,           7.
    353,  -34.5999985,           7.
    354,  -34.7000008,           7.
    355,  -34.7999992,           7.
    356,  -34.9000015,           7.
    357,         -35.,           7.
    358,  -35.0999985,           7.
    359,  -35.2000008,           7.
    360,  -35.2999992,           7.
    361,  -35.4000015,           7.
    362,        -35.5,           7.
    363,  -35.5999985,           7.
    364,  -35.7000008,           7.
    365,  -35.7999992,           7.
    366,  -35.9000015,           7.
    367,         -36.,           7.
    368,  -36.0999985,           7.
    369,  -36.2000008,           7.
    370,  -36.2999992,           7.
    371,  -36.4000015,           7.
    372,        -36.5,           7.
    373,  -36.5999985,           7.
    374,  -36.7000008,           7.
    375,  -36.7999992,           7.
    376,  -36.9000015,           7.
    377,         -37.,           7.
    378,  -37.0999985,           7.
    379,  -37.2000008,           7.
    380,  -37.2999992,           7.
    381,  -37.4000015,           7.
    382,        -37.5,           7.
    383,  -37.5999985,           7.
    384,  -37.7000008,           7.
    385,  -37.7999992,           7.
    386,  -37.9000015,           7.
    387,         -38.,           7.
    388,  -38.0999985,           7.
    389,  -38.2000008,           7.
    390,  -38.2999992,           7.
    391,  -38.4000015,           7.
    392,        -38.5,           7.
    393,  -38.5999985,           7.
    394,  -38.7000008,           7.
    395,  -38.7999992,           7.
    396,  -38.9000015,           7.
    397,         -39.,           7.
    398,  -39.0999985,           7.
    399,  -39.2000008,           7.
    400,  -39.2999992,           7.
    401,  -39.4000015,           7.
    402,        -39.5,           7.
    403,  -39.5999985,           7.
    404,  -39.7000008,           7.
    405,  -39.7999992,           7.
    406,  -39.9000015,           7.
    407,         -40.,           7.
    408,  -40.0999985,           7.
    409,  -40.2000008,           7.
    410,  -40.2999992,           7.
    411,  -40.4000015,           7.
    412,        -40.5,           7.
    413,  -40.5999985,           7.
    414,  -40.7000008,           7.
    415,  -40.7999992,           7.
    416,  -40.9000015,           7.
    417,         -41.,           7.
    418,  -41.0999985,           7.
    419,  -41.2000008,           7.
    420,  -41.2999992,           7.
    421,  -41.4000015,           7.
    422,        -41.5,           7.
    423,  -41.5999985,           7.
    424,  -41.7000008,           7.
    425,  -41.7999992,           7.
    426,  -41.9000015,           7.
    427,         -42.,           7.
    428,  -42.0999985,           7.
    429,  -42.2000008,           7.
    430,  -42.2999992,           7.
    431,  -42.4000015,           7.
    432,        -42.5,           7.
    433,  -42.5999985,           7.
    434,  -42.7000008,           7.
    435,  -42.7999992,           7.
    436,  -42.9000015,           7.
    437,         -43.,           7.
    438,  -43.0999985,           7.
    439,  -43.2000008,           7.
    440,  -43.2999992,           7.
    441,  -43.4000015,           7.
    442,        -43.5,           7.
    443,  -43.5999985,           7.
    444,  -43.7000008,           7.
    445,  -43.7999992,           7.
    446,  -43.9000015,           7.
    447,         -44.,           7.
    448,  -44.0999985,           7.
    449,  -44.2000008,           7.
    450,  -44.2999992,           7.
    451,  -44.4000015,           7.
    452,        -44.5,           7.
    453,  -44.5999985,           7.
    454,  -44.7000008,           7.
    455,  -44.7999992,           7.
    456,  -44.9000015,           7.
    457,         -45.,           7.
    458,  -45.0999985,           7.
    459,  -45.2000008,           7.
    460,  -45.2999992,           7.
    461,  -45.4000015,           7.
    462,        -45.5,           7.
    463,  -45.5999985,           7.
    464,  -45.7000008,           7.
    465,  -45.7999992,           7.
    466,  -45.9000015,           7.
    467,         -46.,           7.
    468,  -46.0999985,           7.
    469,  -46.2000008,           7.
    470,  -46.2999992,           7.
    471,  -46.4000015,           7.
    472,        -46.5,           7.
    473,  -46.5999985,           7.
    474,  -46.7000008,           7.
    475,  -46.7999992,           7.
    476,  -46.9000015,           7.
    477,         -47.,           7.
    478,  -47.0999985,           7.
    479,  -47.2000008,           7.
    480,  -47.2999992,           7.
    481,  -47.4000015,           7.
    482,        -47.5,           7.
    483,  -47.5999985,           7.
    484,  -47.7000008,           7.
    485,  -47.7999992,           7.
    486,  -47.9000015,           7.
    487,         -48.,           7.
    488,  -48.0999985,           7.
    489,  -48.2000008,           7.
    490,  -48.2999992,           7.
    491,  -48.4000015,           7.
    492,        -48.5,           7.
    493,  -48.5999985,           7.
    494,  -48.7000008,           7.
    495,  -48.7999992,           7.
    496,  -48.9000015,           7.
    497,         -49.,           7.
    498,  -49.0999985,           7.
    499,  -49.2000008,           7.
    500,  -49.2999992,           7.
    501,  -49.4000015,           7.
    502,        -49.5,           7.
    503,  -49.5999985,           7.
    504,  -49.7000008,           7.
    505,  -49.7999992,           7.
    506,  -49.9000015,           7.
    507,         -50.,   5.83333349
    508,  -49.9000015,           0.
    509,  -49.7999992,           0.
    510,  -49.7000008,           0.
    511,  -49.5999985,           0.
    512,        -49.5,           0.
    513,  -49.4000015,           0.
    514,  -49.2999992,           0.
    515,  -49.2000008,           0.
    516,  -49.0999985,           0.
    517,         -49.,           0.
    518,  -48.9000015,           0.
    519,  -48.7999992,           0.
    520,  -48.7000008,           0.
    521,  -48.5999985,           0.
    522,        -48.5,           0.
    523,  -48.4000015,           0.
    524,  -48.2999992,           0.
    525,  -48.2000008,           0.
    526,  -48.0999985,           0.
    527,         -48.,           0.
    528,  -47.9000015,           0.
    529,  -47.7999992,           0.
    530,  -47.7000008,           0.
    531,  -47.5999985,           0.
    532,        -47.5,           0.
    533,  -47.4000015,           0.
    534,  -47.2999992,           0.
    535,  -47.2000008,           0.
    536,  -47.0999985,           0.
    537,         -47.,           0.
    538,  -46.9000015,           0.
    539,  -46.7999992,           0.
    540,  -46.7000008,           0.
    541,  -46.5999985,           0.
    542,        -46.5,           0.
    543,  -46.4000015,           0.
    544,  -46.2999992,           0.
    545,  -46.2000008,           0.
    546,  -46.0999985,           0.
    547,         -46.,           0.
    548,  -45.9000015,           0.
    549,  -45.7999992,           0.
    550,  -45.7000008,           0.
    551,  -45.5999985,           0.
    552,        -45.5,           0.
    553,  -45.4000015,           0.
    554,  -45.2999992,           0.
    555,  -45.2000008,           0.
    556,  -45.0999985,           0.
    557,         -45.,           0.
    558,  -44.9000015,           0.
    559,  -44.7999992,           0.
    560,  -44.7000008,           0.
    561,  -44.5999985,           0.
    562,        -44.5,           0.
    563,  -44.4000015,           0.
    564,  -44.2999992,           0.
    565,  -44.2000008,           0.
    566,  -44.0999985,           0.
    567,         -44.,           0.
    568,  -43.9000015,           0.
    569,  -43.7999992,           0.
    570,  -43.7000008,           0.
    571,  -43.5999985,           0.
    572,        -43.5,           0.
    573,  -43.4000015,           0.
    574,  -43.2999992,           0.
    575,  -43.2000008,           0.
    576,  -43.0999985,           0.
    577,         -43.,           0.
    578,  -42.9000015,           0.
    579,  -42.7999992,           0.
    580,  -42.7000008,           0.
    581,  -42.5999985,           0.
    582,        -42.5,           0.
    583,  -42.4000015,           0.
    584,  -42.2999992,           0.
    585,  -42.2000008,           0.
    586,  -42.0999985,           0.
    587,         -42.,           0.
    588,  -41.9000015,           0.
    589,  -41.7999992,           0.
    590,  -41.7000008,           0.
    591,  -41.5999985,           0.
    592,        -41.5,           0.
    593,  -41.4000015,           0.
    594,  -41.2999992,           0.
    595,  -41.2000008,           0.
    596,  -41.0999985,           0.
    597,         -41.,           0.
    598,  -40.9000015,           0.
    599,  -40.7999992,           0.
    600,  -40.7000008,           0.
    601,  -40.5999985,           0.
    602,        -40.5,           0.
    603,  -40.4000015,           0.
    604,  -40.2999992,           0.
    605,  -40.2000008,           0.
    606,  -40.0999985,           0.
    607,         -40.,           0.
    608,  -39.9000015,           0.
    609,  -39.7999992,           0.
    610,  -39.7000008,           0.
    611,  -39.5999985,           0.
    612,        -39.5,           0.
    613,  -39.4000015,           0.
    614,  -39.2999992,           0.
    615,  -39.2000008,           0.
    616,  -39.0999985,           0.
    617,         -39.,           0.
    618,  -38.9000015,           0.
    619,  -38.7999992,           0.
    620,  -38.7000008,           0.
    621,  -38.5999985,           0.
    622,        -38.5,           0.
    623,  -38.4000015,           0.
    624,  -38.2999992,           0.
    625,  -38.2000008,           0.
    626,  -38.0999985,           0.
    627,         -38.,           0.
    628,  -37.9000015,           0.
    629,  -37.7999992,           0.
    630,  -37.7000008,           0.
    631,  -37.5999985,           0.
    632,        -37.5,           0.
    633,  -37.4000015,           0.
    634,  -37.2999992,           0.
    635,  -37.2000008,           0.
    636,  -37.0999985,           0.
    637,         -37.,           0.
    638,  -36.9000015,           0.
    639,  -36.7999992,           0.
    640,  -36.7000008,           0.
    641,  -36.5999985,           0.
    642,        -36.5,           0.
    643,  -36.4000015,           0.
    644,  -36.2999992,           0.
    645,  -36.2000008,           0.
    646,  -36.0999985,           0.
    647,         -36.,           0.
    648,  -35.9000015,           0.
    649,  -35.7999992,           0.
    650,  -35.7000008,           0.
    651,  -35.5999985,           0.
    652,        -35.5,           0.
    653,  -35.4000015,           0.
    654,  -35.2999992,           0.
    655,  -35.2000008,           0.
    656,  -35.0999985,           0.
    657,         -35.,           0.
    658,  -34.9000015,           0.
    659,  -34.7999992,           0.
    660,  -34.7000008,           0.
    661,  -34.5999985,           0.
    662,        -34.5,           0.
    663,  -34.4000015,           0.
    664,  -34.2999992,           0.
    665,  -34.2000008,           0.
    666,  -34.0999985,           0.
    667,         -34.,           0.
    668,  -33.9000015,           0.
    669,  -33.7999992,           0.
    670,  -33.7000008,           0.
    671,  -33.5999985,           0.
    672,        -33.5,           0.
    673,  -33.4000015,           0.
    674,  -33.2999992,           0.
    675,  -33.2000008,           0.
    676,  -33.0999985,           0.
    677,         -33.,           0.
    678,  -32.9000015,           0.
    679,  -32.7999992,           0.
    680,  -32.7000008,           0.
    681,  -32.5999985,           0.
    682,        -32.5,           0.
    683,  -32.4000015,           0.
    684,  -32.2999992,           0.
    685,  -32.2000008,           0.
    686,  -32.0999985,           0.
    687,         -32.,           0.
    688,  -31.8999996,           0.
    689,  -31.7999992,           0.
    690,  -31.7000008,           0.
    691,  -31.6000004,           0.
    692,        -31.5,           0.
    693,  -31.3999996,           0.
    694,  -31.2999992,           0.
    695,  -31.2000008,           0.
    696,  -31.1000004,           0.
    697,         -31.,           0.
    698,  -30.8999996,           0.
    699,  -30.7999992,           0.
    700,  -30.7000008,           0.
    701,  -30.6000004,           0.
    702,        -30.5,           0.
    703,  -30.3999996,           0.
    704,  -30.2999992,           0.
    705,  -30.2000008,           0.
    706,  -30.1000004,           0.
    707,         -30.,           0.
    708,  -29.8999996,           0.
    709,  -29.7999992,           0.
    710,  -29.7000008,           0.
    711,  -29.6000004,           0.
    712,        -29.5,           0.
    713,  -29.3999996,           0.
    714,  -29.2999992,           0.
    715,  -29.2000008,           0.
    716,  -29.1000004,           0.
    717,         -29.,           0.
    718,  -28.8999996,           0.
    719,  -28.7999992,           0.
    720,  -28.7000008,           0.
    721,  -28.6000004,           0.
    722,        -28.5,           0.
    723,  -28.3999996,           0.
    724,  -28.2999992,           0.
    725,  -28.2000008,           0.
    726,  -28.1000004,           0.
    727,         -28.,           0.
    728,  -27.8999996,           0.
    729,  -27.7999992,           0.
    730,  -27.7000008,           0.
    731,  -27.6000004,           0.
    732,        -27.5,           0.
    733,  -27.3999996,           0.
    734,  -27.2999992,           0.
    735,  -27.2000008,           0.
    736,  -27.1000004,           0.
    737,         -27.,           0.
    738,  -26.8999996,           0.
    739,  -26.7999992,           0.
    740,  -26.7000008,           0.
    741,  -26.6000004,           0.
    742,        -26.5,           0.
    743,  -26.3999996,           0.
    744,  -26.2999992,           0.
    745,  -26.2000008,           0.
    746,  -26.1000004,           0.
    747,         -26.,           0.
    748,  -25.8999996,           0.
    749,  -25.7999992,           0.
    750,  -25.7000008,           0.
    751,  -25.6000004,           0.
    752,        -25.5,           0.
    753,  -25.3999996,           0.
    754,  -25.2999992,           0.
    755,  -25.2000008,           0.
    756,  -25.1000004,           0.
    757,         -25.,           0.
    758,  -24.8999996,           0.
    759,  -24.7999992,           0.
    760,  -24.7000008,           0.
    761,  -24.6000004,           0.
    762,        -24.5,           0.
    763,  -24.3999996,           0.
    764,  -24.2999992,           0.
    765,  -24.2000008,           0.
    766,  -24.1000004,           0.
    767,         -24.,           0.
    768,  -23.8999996,           0.
    769,  -23.7999992,           0.
    770,  -23.7000008,           0.
    771,  -23.6000004,           0.
    772,        -23.5,           0.
    773,  -23.3999996,           0.
    774,  -23.2999992,           0.
    775,  -23.2000008,           0.
    776,  -23.1000004,           0.
    777,         -23.,           0.
    778,  -22.8999996,           0.
    779,  -22.7999992,           0.
    780,  -22.7000008,           0.
    781,  -22.6000004,           0.
    782,        -22.5,           0.
    783,  -22.3999996,           0.
    784,  -22.2999992,           0.
    785,  -22.2000008,           0.
    786,  -22.1000004,           0.
    787,         -22.,           0.
    788,  -21.8999996,           0.
    789,  -21.7999992,           0.
    790,  -21.7000008,           0.
    791,  -21.6000004,           0.
    792,        -21.5,           0.
    793,  -21.3999996,           0.
    794,  -21.2999992,           0.
    795,  -21.2000008,           0.
    796,  -21.1000004,           0.
    797,         -21.,           0.
    798,  -20.8999996,           0.
    799,  -20.7999992,           0.
    800,  -20.7000008,           0.
    801,  -20.6000004,           0.
    802,        -20.5,           0.
    803,  -20.3999996,           0.
    804,  -20.2999992,           0.
    805,  -20.2000008,           0.
    806,  -20.1000004,           0.
    807,         -20.,           0.
    808,  -19.8999996,           0.
    809,  -19.7999992,           0.
    810,  -19.7000008,           0.
    811,  -19.6000004,           0.
    812,        -19.5,           0.
    813,  -19.3999996,           0.
    814,  -19.2999992,           0.
    815,  -19.2000008,           0.
    816,  -19.1000004,           0.
    817,         -19.,           0.
    818,  -18.8999996,           0.
    819,  -18.7999992,           0.
    820,  -18.7000008,           0.
    821,  -18.6000004,           0.
    822,        -18.5,           0.
    823,  -18.3999996,           0.
    824,  -18.2999992,           0.
    825,  -18.2000008,           0.
    826,  -18.1000004,           0.
    827,         -18.,           0.
    828,  -17.8999996,           0.
    829,  -17.7999992,           0.
    830,  -17.7000008,           0.
    831,  -17.6000004,           0.
    832,        -17.5,           0.
    833,  -17.3999996,           0.
    834,  -17.2999992,           0.
    835,  -17.2000008,           0.
    836,  -17.1000004,           0.
    837,         -17.,           0.
    838,  -16.8999996,           0.
    839,  -16.7999992,           0.
    840,  -16.7000008,           0.
    841,  -16.6000004,           0.
    842,        -16.5,           0.
    843,  -16.3999996,           0.
    844,  -16.2999992,           0.
    845,  -16.2000008,           0.
    846,  -16.1000004,           0.
    847,         -16.,           0.
    848,  -15.8999996,           0.
    849,  -15.8000002,           0.
    850,  -15.6999998,           0.
    851,  -15.6000004,           0.
    852,        -15.5,           0.
    853,  -15.3999996,           0.
    854,  -15.3000002,           0.
    855,  -15.1999998,           0.
    856,  -15.1000004,           0.
    857,         -15.,           0.
    858,  -14.8999996,           0.
    859,  -14.8000002,           0.
    860,  -14.6999998,           0.
    861,  -14.6000004,           0.
    862,        -14.5,           0.
    863,  -14.3999996,           0.
    864,  -14.3000002,           0.
    865,  -14.1999998,           0.
    866,  -14.1000004,           0.
    867,         -14.,           0.
    868,  -13.8999996,           0.
    869,  -13.8000002,           0.
    870,  -13.6999998,           0.
    871,  -13.6000004,           0.
    872,        -13.5,           0.
    873,  -13.3999996,           0.
    874,  -13.3000002,           0.
    875,  -13.1999998,           0.
    876,  -13.1000004,           0.
    877,         -13.,           0.
    878,  -12.8999996,           0.
    879,  -12.8000002,           0.
    880,  -12.6999998,           0.
    881,  -12.6000004,           0.
    882,        -12.5,           0.
    883,  -12.3999996,           0.
    884,  -12.3000002,           0.
    885,  -12.1999998,           0.
    886,  -12.1000004,           0.
    887,         -12.,           0.
    888,  -11.8999996,           0.
    889,  -11.8000002,           0.
    890,  -11.6999998,           0.
    891,  -11.6000004,           0.
    892,        -11.5,           0.
    893,  -11.3999996,           0.
    894,  -11.3000002,           0.
    895,  -11.1999998,           0.
    896,  -11.1000004,           0.
    897,         -11.,           0.
    898,  -10.8999996,           0.
    899,  -10.8000002,           0.
    900,  -10.6999998,           0.
    901,  -10.6000004,           0.
    902,        -10.5,           0.
    903,  -10.3999996,           0.
    904,  -10.3000002,           0.
    905,  -10.1999998,           0.
    906,  -10.1000004,           0.
    907,         -10.,           0.
    908,  -9.89999962,           0.
    909,  -9.80000019,           0.
    910,  -9.69999981,           0.
    911,  -9.60000038,           0.
    912,         -9.5,           0.
    913,  -9.39999962,           0.
    914,  -9.30000019,           0.
    915,  -9.19999981,           0.
    916,  -9.10000038,           0.
    917,          -9.,           0.
    918,  -8.89999962,           0.
    919,  -8.80000019,           0.
    920,  -8.69999981,           0.
    921,  -8.60000038,           0.
    922,         -8.5,           0.
    923,  -8.39999962,           0.
    924,  -8.30000019,           0.
    925,  -8.19999981,           0.
    926,  -8.10000038,           0.
    927,          -8.,           0.
    928,   -7.9000001,           0.
    929,  -7.80000019,           0.
    930,  -7.69999981,           0.
    931,   -7.5999999,           0.
    932,         -7.5,           0.
    933,   -7.4000001,           0.
    934,  -7.30000019,           0.
    935,  -7.19999981,           0.
    936,   -7.0999999,           0.
    937,          -7.,           0.
    938,   -6.9000001,           0.
    939,  -6.80000019,           0.
    940,  -6.69999981,           0.
    941,   -6.5999999,           0.
    942,         -6.5,           0.
    943,   -6.4000001,           0.
    944,  -6.30000019,           0.
    945,  -6.19999981,           0.
    946,   -6.0999999,           0.
    947,          -6.,           0.
    948,   -5.9000001,           0.
    949,  -5.80000019,           0.
    950,  -5.69999981,           0.
    951,   -5.5999999,           0.
    952,         -5.5,           0.
    953,   -5.4000001,           0.
    954,  -5.30000019,           0.
    955,  -5.19999981,           0.
    956,   -5.0999999,           0.
    957,          -5.,           0.
    958,   -4.9000001,           0.
    959,  -4.80000019,           0.
    960,  -4.69999981,           0.
    961,   -4.5999999,           0.
    962,         -4.5,           0.
    963,   -4.4000001,           0.
    964,  -4.30000019,           0.
    965,  -4.19999981,           0.
    966,   -4.0999999,           0.
    967,          -4.,           0.
    968,   -3.9000001,           0.
    969,  -3.79999995,           0.
    970,  -3.70000005,           0.
    971,   -3.5999999,           0.
    972,         -3.5,           0.
    973,   -3.4000001,           0.
    974,  -3.29999995,           0.
    975,  -3.20000005,           0.
    976,   -3.0999999,           0.
    977,          -3.,           0.
    978,   -2.9000001,           0.
    979,  -2.79999995,           0.
    980,  -2.70000005,           0.
    981,   -2.5999999,           0.
    982,         -2.5,           0.
    983,   -2.4000001,           0.
    984,  -2.29999995,           0.
    985,  -2.20000005,           0.
    986,   -2.0999999,           0.
    987,          -2.,           0.
    988,  -1.89999998,           0.
    989,  -1.79999995,           0.
    990,  -1.70000005,           0.
    991,  -1.60000002,           0.
    992,         -1.5,           0.
    993,  -1.39999998,           0.
    994,  -1.29999995,           0.
    995,  -1.20000005,           0.
    996,  -1.10000002,           0.
    997,          -1.,           0.
    998, -0.899999976,           0.
    999, -0.800000012,           0.
   1000, -0.699999988,           0.
   1001, -0.600000024,           0.
   1002,         -0.5,           0.
   1003, -0.400000006,           0.
   1004, -0.300000012,           0.
   1005, -0.200000003,           0.
   1006, -0.100000001,           0.
   1007,  0.100000001,           0.
   1008,  0.200000003,           0.
   1009,  0.300000012,           0.
   1010,  0.400000006,           0.
   1011,          0.5,           0.
   1012,  0.600000024,           0.
   1013,  0.699999988,           0.
   1014,  0.800000012,           0.
   1015,  0.899999976,           0.
   1016,           1.,           0.
   1017,   1.10000002,           0.
   1018,   1.20000005,           0.
   1019,   1.29999995,           0.
   1020,   1.39999998,           0.
   1021,          1.5,           0.
   1022,   1.60000002,           0.
   1023,   1.70000005,           0.
   1024,   1.79999995,           0.
   1025,   1.89999998,           0.
   1026,           2.,           0.
   1027,    2.0999999,           0.
   1028,   2.20000005,           0.
   1029,   2.29999995,           0.
   1030,    2.4000001,           0.
   1031,          2.5,           0.
   1032,    2.5999999,           0.
   1033,   2.70000005,           0.
   1034,   2.79999995,           0.
   1035,    2.9000001,           0.
   1036,           3.,           0.
   1037,    3.0999999,           0.
   1038,   3.20000005,           0.
   1039,   3.29999995,           0.
   1040,    3.4000001,           0.
   1041,          3.5,           0.
   1042,    3.5999999,           0.
   1043,   3.70000005,           0.
   1044,   3.79999995,           0.
   1045,    3.9000001,           0.
   1046,           4.,           0.
   1047,    4.0999999,           0.
   1048,   4.19999981,           0.
   1049,   4.30000019,           0.
   1050,    4.4000001,           0.
   1051,          4.5,           0.
   1052,    4.5999999,           0.
   1053,   4.69999981,           0.
   1054,   4.80000019,           0.
   1055,    4.9000001,           0.
   1056,           5.,           0.
   1057,    5.0999999,           0.
   1058,   5.19999981,           0.
   1059,   5.30000019,           0.
   1060,    5.4000001,           0.
   1061,          5.5,           0.
   1062,    5.5999999,           0.
   1063,   5.69999981,           0.
   1064,   5.80000019,           0.
   1065,    5.9000001,           0.
   1066,           6.,           0.
   1067,    6.0999999,           0.
   1068,   6.19999981,           0.
   1069,   6.30000019,           0.
   1070,    6.4000001,           0.
   1071,          6.5,           0.
   1072,    6.5999999,           0.
   1073,   6.69999981,           0.
   1074,   6.80000019,           0.
   1075,    6.9000001,           0.
   1076,           7.,           0.
   1077,    7.0999999,           0.
   1078,   7.19999981,           0.
   1079,   7.30000019,           0.
   1080,    7.4000001,           0.
   1081,          7.5,           0.
   1082,    7.5999999,           0.
   1083,   7.69999981,           0.
   1084,   7.80000019,           0.
   1085,    7.9000001,           0.
   1086,           8.,           0.
   1087,   8.10000038,           0.
   1088,   8.19999981,           0.
   1089,   8.30000019,           0.
   1090,   8.39999962,           0.
   1091,          8.5,           0.
   1092,   8.60000038,           0.
   1093,   8.69999981,           0.
   1094,   8.80000019,           0.
   1095,   8.89999962,           0.
   1096,           9.,           0.
   1097,   9.10000038,           0.
   1098,   9.19999981,           0.
   1099,   9.30000019,           0.
   1100,   9.39999962,           0.
   1101,          9.5,           0.
   1102,   9.60000038,           0.
   1103,   9.69999981,           0.
   1104,   9.80000019,           0.
   1105,   9.89999962,           0.
   1106,          10.,           0.
   1107,   10.1000004,           0.
   1108,   10.1999998,           0.
   1109,   10.3000002,           0.
   1110,   10.3999996,           0.
   1111,         10.5,           0.
   1112,   10.6000004,           0.
   1113,   10.6999998,           0.
   1114,   10.8000002,           0.
   1115,   10.8999996,           0.
   1116,          11.,           0.
   1117,   11.1000004,           0.
   1118,   11.1999998,           0.
   1119,   11.3000002,           0.
   1120,   11.3999996,           0.
   1121,         11.5,           0.
   1122,   11.6000004,           0.
   1123,   11.6999998,           0.
   1124,   11.8000002,           0.
   1125,   11.8999996,           0.
   1126,          12.,           0.
   1127,   12.1000004,           0.
   1128,   12.1999998,           0.
   1129,   12.3000002,           0.
   1130,   12.3999996,           0.
   1131,         12.5,           0.
   1132,   12.6000004,           0.
   1133,   12.6999998,           0.
   1134,   12.8000002,           0.
   1135,   12.8999996,           0.
   1136,          13.,           0.
   1137,   13.1000004,           0.
   1138,   13.1999998,           0.
   1139,   13.3000002,           0.
   1140,   13.3999996,           0.
   1141,         13.5,           0.
   1142,   13.6000004,           0.
   1143,   13.6999998,           0.
   1144,   13.8000002,           0.
   1145,   13.8999996,           0.
   1146,          14.,           0.
   1147,   14.1000004,           0.
   1148,   14.1999998,           0.
   1149,   14.3000002,           0.
   1150,   14.3999996,           0.
   1151,         14.5,           0.
   1152,   14.6000004,           0.
   1153,   14.6999998,           0.
   1154,   14.8000002,           0.
   1155,   14.8999996,           0.
   1156,          15.,           0.
   1157,   15.1000004,           0.
   1158,   15.1999998,           0.
   1159,   15.3000002,           0.
   1160,   15.3999996,           0.
   1161,         15.5,           0.
   1162,   15.6000004,           0.
   1163,   15.6999998,           0.
   1164,   15.8000002,           0.
   1165,   15.8999996,           0.
   1166,          16.,           0.
   1167,   16.1000004,           0.
   1168,   16.2000008,           0.
   1169,   16.2999992,           0.
   1170,   16.3999996,           0.
   1171,         16.5,           0.
   1172,   16.6000004,           0.
   1173,   16.7000008,           0.
   1174,   16.7999992,           0.
   1175,   16.8999996,           0.
   1176,          17.,           0.
   1177,   17.1000004,           0.
   1178,   17.2000008,           0.
   1179,   17.2999992,           0.
   1180,   17.3999996,           0.
   1181,         17.5,           0.
   1182,   17.6000004,           0.
   1183,   17.7000008,           0.
   1184,   17.7999992,           0.
   1185,   17.8999996,           0.
   1186,          18.,           0.
   1187,   18.1000004,           0.
   1188,   18.2000008,           0.
   1189,   18.2999992,           0.
   1190,   18.3999996,           0.
   1191,         18.5,           0.
   1192,   18.6000004,           0.
   1193,   18.7000008,           0.
   1194,   18.7999992,           0.
   1195,   18.8999996,           0.
   1196,          19.,           0.
   1197,   19.1000004,           0.
   1198,   19.2000008,           0.
   1199,   19.2999992,           0.
   1200,   19.3999996,           0.
   1201,         19.5,           0.
   1202,   19.6000004,           0.
   1203,   19.7000008,           0.
   1204,   19.7999992,           0.
   1205,   19.8999996,           0.
   1206,          20.,           0.
   1207,   20.1000004,           0.
   1208,   20.2000008,           0.
   1209,   20.2999992,           0.
   1210,   20.3999996,           0.
   1211,         20.5,           0.
   1212,   20.6000004,           0.
   1213,   20.7000008,           0.
   1214,   20.7999992,           0.
   1215,   20.8999996,           0.
   1216,          21.,           0.
   1217,   21.1000004,           0.
   1218,   21.2000008,           0.
   1219,   21.2999992,           0.
   1220,   21.3999996,           0.
   1221,         21.5,           0.
   1222,   21.6000004,           0.
   1223,   21.7000008,           0.
   1224,   21.7999992,           0.
   1225,   21.8999996,           0.
   1226,          22.,           0.
   1227,   22.1000004,           0.
   1228,   22.2000008,           0.
   1229,   22.2999992,           0.
   1230,   22.3999996,           0.
   1231,         22.5,           0.
   1232,   22.6000004,           0.
   1233,   22.7000008,           0.
   1234,   22.7999992,           0.
   1235,   22.8999996,           0.
   1236,          23.,           0.
   1237,   23.1000004,           0.
   1238,   23.2000008,           0.
   1239,   23.2999992,           0.
   1240,   23.3999996,           0.
   1241,         23.5,           0.
   1242,   23.6000004,           0.
   1243,   23.7000008,           0.
   1244,   23.7999992,           0.
   1245,   23.8999996,           0.
   1246,          24.,           0.
   1247,   24.1000004,           0.
   1248,   24.2000008,           0.
   1249,   24.2999992,           0.
   1250,   24.3999996,           0.
   1251,         24.5,           0.
   1252,   24.6000004,           0.
   1253,   24.7000008,           0.
   1254,   24.7999992,           0.
   1255,   24.8999996,           0.
   1256,          25.,           0.
   1257,   25.1000004,           0.
   1258,   25.2000008,           0.
   1259,   25.2999992,           0.
   1260,   25.3999996,           0.
   1261,         25.5,           0.
   1262,   25.6000004,           0.
   1263,   25.7000008,           0.
   1264,   25.7999992,           0.
   1265,   25.8999996,           0.
   1266,          26.,           0.
   1267,   26.1000004,           0.
   1268,   26.2000008,           0.
   1269,   26.2999992,           0.
   1270,   26.3999996,           0.
   1271,         26.5,           0.
   1272,   26.6000004,           0.
   1273,   26.7000008,           0.
   1274,   26.7999992,           0.
   1275,   26.8999996,           0.
   1276,          27.,           0.
   1277,   27.1000004,           0.
   1278,   27.2000008,           0.
   1279,   27.2999992,           0.
   1280,   27.3999996,           0.
   1281,         27.5,           0.
   1282,   27.6000004,           0.
   1283,   27.7000008,           0.
   1284,   27.7999992,           0.
   1285,   27.8999996,           0.
   1286,          28.,           0.
   1287,   28.1000004,           0.
   1288,   28.2000008,           0.
   1289,   28.2999992,           0.
   1290,   28.3999996,           0.
   1291,         28.5,           0.
   1292,   28.6000004,           0.
   1293,   28.7000008,           0.
   1294,   28.7999992,           0.
   1295,   28.8999996,           0.
   1296,          29.,           0.
   1297,   29.1000004,           0.
   1298,   29.2000008,           0.
   1299,   29.2999992,           0.
   1300,   29.3999996,           0.
   1301,         29.5,           0.
   1302,   29.6000004,           0.
   1303,   29.7000008,           0.
   1304,   29.7999992,           0.
   1305,   29.8999996,           0.
   1306,          30.,           0.
   1307,   30.1000004,           0.
   1308,   30.2000008,           0.
   1309,   30.2999992,           0.
   1310,   30.3999996,           0.
   1311,         30.5,           0.
   1312,   30.6000004,           0.
   1313,   30.7000008,           0.
   1314,   30.7999992,           0.
   1315,   30.8999996,           0.
   1316,          31.,           0.
   1317,   31.1000004,           0.
   1318,   31.2000008,           0.
   1319,   31.2999992,           0.
   1320,   31.3999996,           0.
   1321,         31.5,           0.
   1322,   31.6000004,           0.
   1323,   31.7000008,           0.
   1324,   31.7999992,           0.
   1325,   31.8999996,           0.
   1326,          32.,           0.
   1327,   32.0999985,           0.
   1328,   32.2000008,           0.
   1329,   32.2999992,           0.
   1330,   32.4000015,           0.
   1331,         32.5,           0.
   1332,   32.5999985,           0.
   1333,   32.7000008,           0.
   1334,   32.7999992,           0.
   1335,   32.9000015,           0.
   1336,          33.,           0.
   1337,   33.0999985,           0.
   1338,   33.2000008,           0.
   1339,   33.2999992,           0.
   1340,   33.4000015,           0.
   1341,         33.5,           0.
   1342,   33.5999985,           0.
   1343,   33.7000008,           0.
   1344,   33.7999992,           0.
   1345,   33.9000015,           0.
   1346,          34.,           0.
   1347,   34.0999985,           0.
   1348,   34.2000008,           0.
   1349,   34.2999992,           0.
   1350,   34.4000015,           0.
   1351,         34.5,           0.
   1352,   34.5999985,           0.
   1353,   34.7000008,           0.
   1354,   34.7999992,           0.
   1355,   34.9000015,           0.
   1356,          35.,           0.
   1357,   35.0999985,           0.
   1358,   35.2000008,           0.
   1359,   35.2999992,           0.
   1360,   35.4000015,           0.
   1361,         35.5,           0.
   1362,   35.5999985,           0.
   1363,   35.7000008,           0.
   1364,   35.7999992,           0.
   1365,   35.9000015,           0.
   1366,          36.,           0.
   1367,   36.0999985,           0.
   1368,   36.2000008,           0.
   1369,   36.2999992,           0.
   1370,   36.4000015,           0.
   1371,         36.5,           0.
   1372,   36.5999985,           0.
   1373,   36.7000008,           0.
   1374,   36.7999992,           0.
   1375,   36.9000015,           0.
   1376,          37.,           0.
   1377,   37.0999985,           0.
   1378,   37.2000008,           0.
   1379,   37.2999992,           0.
   1380,   37.4000015,           0.
   1381,         37.5,           0.
   1382,   37.5999985,           0.
   1383,   37.7000008,           0.
   1384,   37.7999992,           0.
   1385,   37.9000015,           0.
   1386,          38.,           0.
   1387,   38.0999985,           0.
   1388,   38.2000008,           0.
   1389,   38.2999992,           0.
   1390,   38.4000015,           0.
   1391,         38.5,           0.
   1392,   38.5999985,           0.
   1393,   38.7000008,           0.
   1394,   38.7999992,           0.
   1395,   38.9000015,           0.
   1396,          39.,           0.
   1397,   39.0999985,           0.
   1398,   39.2000008,           0.
   1399,   39.2999992,           0.
   1400,   39.4000015,           0.
   1401,         39.5,           0.
   1402,   39.5999985,           0.
   1403,   39.7000008,           0.
   1404,   39.7999992,           0.
   1405,   39.9000015,           0.
   1406,          40.,           0.
   1407,   40.0999985,           0.
   1408,   40.2000008,           0.
   1409,   40.2999992,           0.
   1410,   40.4000015,           0.
   1411,         40.5,           0.
   1412,   40.5999985,           0.
   1413,   40.7000008,           0.
   1414,   40.7999992,           0.
   1415,   40.9000015,           0.
   1416,          41.,           0.
   1417,   41.0999985,           0.
   1418,   41.2000008,           0.
   1419,   41.2999992,           0.
   1420,   41.4000015,           0.
   1421,         41.5,           0.
   1422,   41.5999985,           0.
   1423,   41.7000008,           0.
   1424,   41.7999992,           0.
   1425,   41.9000015,           0.
   1426,          42.,           0.
   1427,   42.0999985,           0.
   1428,   42.2000008,           0.
   1429,   42.2999992,           0.
   1430,   42.4000015,           0.
   1431,         42.5,           0.
   1432,   42.5999985,           0.
   1433,   42.7000008,           0.
   1434,   42.7999992,           0.
   1435,   42.9000015,           0.
   1436,          43.,           0.
   1437,   43.0999985,           0.
   1438,   43.2000008,           0.
   1439,   43.2999992,           0.
   1440,   43.4000015,           0.
   1441,         43.5,           0.
   1442,   43.5999985,           0.
   1443,   43.7000008,           0.
   1444,   43.7999992,           0.
   1445,   43.9000015,           0.
   1446,          44.,           0.
   1447,   44.0999985,           0.
   1448,   44.2000008,           0.
   1449,   44.2999992,           0.
   1450,   44.4000015,           0.
   1451,         44.5,           0.
   1452,   44.5999985,           0.
   1453,   44.7000008,           0.
   1454,   44.7999992,           0.
   1455,   44.9000015,           0.
   1456,          45.,           0.
   1457,   45.0999985,           0.
   1458,   45.2000008,           0.
   1459,   45.2999992,           0.
   1460,   45.4000015,           0.
   1461,         45.5,           0.
   1462,   45.5999985,           0.
   1463,   45.7000008,           0.
   1464,   45.7999992,           0.
   1465,   45.9000015,           0.
   1466,          46.,           0.
   1467,   46.0999985,           0.
   1468,   46.2000008,           0.
   1469,   46.2999992,           0.
   1470,   46.4000015,           0.
   1471,         46.5,           0.
   1472,   46.5999985,           0.
   1473,   46.7000008,           0.
   1474,   46.7999992,           0.
   1475,   46.9000015,           0.
   1476,          47.,           0.
   1477,   47.0999985,           0.
   1478,   47.2000008,           0.
   1479,   47.2999992,           0.
   1480,   47.4000015,           0.
   1481,         47.5,           0.
   1482,   47.5999985,           0.
   1483,   47.7000008,           0.
   1484,   47.7999992,           0.
   1485,   47.9000015,           0.
   1486,          48.,           0.
   1487,   48.0999985,           0.
   1488,   48.2000008,           0.
   1489,   48.2999992,           0.
   1490,   48.4000015,           0.
   1491,         48.5,           0.
   1492,   48.5999985,           0.
   1493,   48.7000008,           0.
   1494,   48.7999992,           0.
   1495,   48.9000015,           0.
   1496,          49.,           0.
   1497,   49.0999985,           0.
   1498,   49.2000008,           0.
   1499,   49.2999992,           0.
   1500,   49.4000015,           0.
   1501,         49.5,           0.
   1502,   49.5999985,           0.
   1503,   49.7000008,           0.
   1504,   49.7999992,           0.
   1505,   49.9000015,           0.
   1506,          50.,   5.83333349
   1507,   49.9000015,           7.
   1508,   49.7999992,           7.
   1509,   49.7000008,           7.
   1510,   49.5999985,           7.
   1511,         49.5,           7.
   1512,   49.4000015,           7.
   1513,   49.2999992,           7.
   1514,   49.2000008,           7.
   1515,   49.0999985,           7.
   1516,          49.,           7.
   1517,   48.9000015,           7.
   1518,   48.7999992,           7.
   1519,   48.7000008,           7.
   1520,   48.5999985,           7.
   1521,         48.5,           7.
   1522,   48.4000015,           7.
   1523,   48.2999992,           7.
   1524,   48.2000008,           7.
   1525,   48.0999985,           7.
   1526,          48.,           7.
   1527,   47.9000015,           7.
   1528,   47.7999992,           7.
   1529,   47.7000008,           7.
   1530,   47.5999985,           7.
   1531,         47.5,           7.
   1532,   47.4000015,           7.
   1533,   47.2999992,           7.
   1534,   47.2000008,           7.
   1535,   47.0999985,           7.
   1536,          47.,           7.
   1537,   46.9000015,           7.
   1538,   46.7999992,           7.
   1539,   46.7000008,           7.
   1540,   46.5999985,           7.
   1541,         46.5,           7.
   1542,   46.4000015,           7.
   1543,   46.2999992,           7.
   1544,   46.2000008,           7.
   1545,   46.0999985,           7.
   1546,          46.,           7.
   1547,   45.9000015,           7.
   1548,   45.7999992,           7.
   1549,   45.7000008,           7.
   1550,   45.5999985,           7.
   1551,         45.5,           7.
   1552,   45.4000015,           7.
   1553,   45.2999992,           7.
   1554,   45.2000008,           7.
   1555,   45.0999985,           7.
   1556,          45.,           7.
   1557,   44.9000015,           7.
   1558,   44.7999992,           7.
   1559,   44.7000008,           7.
   1560,   44.5999985,           7.
   1561,         44.5,           7.
   1562,   44.4000015,           7.
   1563,   44.2999992,           7.
   1564,   44.2000008,           7.
   1565,   44.0999985,           7.
   1566,          44.,           7.
   1567,   43.9000015,           7.
   1568,   43.7999992,           7.
   1569,   43.7000008,           7.
   1570,   43.5999985,           7.
   1571,         43.5,           7.
   1572,   43.4000015,           7.
   1573,   43.2999992,           7.
   1574,   43.2000008,           7.
   1575,   43.0999985,           7.
   1576,          43.,           7.
   1577,   42.9000015,           7.
   1578,   42.7999992,           7.
   1579,   42.7000008,           7.
   1580,   42.5999985,           7.
   1581,         42.5,           7.
   1582,   42.4000015,           7.
   1583,   42.2999992,           7.
   1584,   42.2000008,           7.
   1585,   42.0999985,           7.
   1586,          42.,           7.
   1587,   41.9000015,           7.
   1588,   41.7999992,           7.
   1589,   41.7000008,           7.
   1590,   41.5999985,           7.
   1591,         41.5,           7.
   1592,   41.4000015,           7.
   1593,   41.2999992,           7.
   1594,   41.2000008,           7.
   1595,   41.0999985,           7.
   1596,          41.,           7.
   1597,   40.9000015,           7.
   1598,   40.7999992,           7.
   1599,   40.7000008,           7.
   1600,   40.5999985,           7.
   1601,         40.5,           7.
   1602,   40.4000015,           7.
   1603,   40.2999992,           7.
   1604,   40.2000008,           7.
   1605,   40.0999985,           7.
   1606,          40.,           7.
   1607,   39.9000015,           7.
   1608,   39.7999992,           7.
   1609,   39.7000008,           7.
   1610,   39.5999985,           7.
   1611,         39.5,           7.
   1612,   39.4000015,           7.
   1613,   39.2999992,           7.
   1614,   39.2000008,           7.
   1615,   39.0999985,           7.
   1616,          39.,           7.
   1617,   38.9000015,           7.
   1618,   38.7999992,           7.
   1619,   38.7000008,           7.
   1620,   38.5999985,           7.
   1621,         38.5,           7.
   1622,   38.4000015,           7.
   1623,   38.2999992,           7.
   1624,   38.2000008,           7.
   1625,   38.0999985,           7.
   1626,          38.,           7.
   1627,   37.9000015,           7.
   1628,   37.7999992,           7.
   1629,   37.7000008,           7.
   1630,   37.5999985,           7.
   1631,         37.5,           7.
   1632,   37.4000015,           7.
   1633,   37.2999992,           7.
   1634,   37.2000008,           7.
   1635,   37.0999985,           7.
   1636,          37.,           7.
   1637,   36.9000015,           7.
   1638,   36.7999992,           7.
   1639,   36.7000008,           7.
   1640,   36.5999985,           7.
   1641,         36.5,           7.
   1642,   36.4000015,           7.
   1643,   36.2999992,           7.
   1644,   36.2000008,           7.
   1645,   36.0999985,           7.
   1646,          36.,           7.
   1647,   35.9000015,           7.
   1648,   35.7999992,           7.
   1649,   35.7000008,           7.
   1650,   35.5999985,           7.
   1651,         35.5,           7.
   1652,   35.4000015,           7.
   1653,   35.2999992,           7.
   1654,   35.2000008,           7.
   1655,   35.0999985,           7.
   1656,          35.,           7.
   1657,   34.9000015,           7.
   1658,   34.7999992,           7.
   1659,   34.7000008,           7.
   1660,   34.5999985,           7.
   1661,         34.5,           7.
   1662,   34.4000015,           7.
   1663,   34.2999992,           7.
   1664,   34.2000008,           7.
   1665,   34.0999985,           7.
   1666,          34.,           7.
   1667,   33.9000015,           7.
   1668,   33.7999992,           7.
   1669,   33.7000008,           7.
   1670,   33.5999985,           7.
   1671,         33.5,           7.
   1672,   33.4000015,           7.
   1673,   33.2999992,           7.
   1674,   33.2000008,           7.
   1675,   33.0999985,           7.
   1676,          33.,           7.
   1677,   32.9000015,           7.
   1678,   32.7999992,           7.
   1679,   32.7000008,           7.
   1680,   32.5999985,           7.
   1681,         32.5,           7.
   1682,   32.4000015,           7.
   1683,   32.2999992,           7.
   1684,   32.2000008,           7.
   1685,   32.0999985,           7.
   1686,          32.,           7.
   1687,   31.8999996,           7.
   1688,   31.7999992,           7.
   1689,   31.7000008,           7.
   1690,   31.6000004,           7.
   1691,         31.5,           7.
   1692,   31.3999996,           7.
   1693,   31.2999992,           7.
   1694,   31.2000008,           7.
   1695,   31.1000004,           7.
   1696,          31.,           7.
   1697,   30.8999996,           7.
   1698,   30.7999992,           7.
   1699,   30.7000008,           7.
   1700,   30.6000004,           7.
   1701,         30.5,           7.
   1702,   30.3999996,           7.
   1703,   30.2999992,           7.
   1704,   30.2000008,           7.
   1705,   30.1000004,           7.
   1706,          30.,           7.
   1707,   29.8999996,           7.
   1708,   29.7999992,           7.
   1709,   29.7000008,           7.
   1710,   29.6000004,           7.
   1711,         29.5,           7.
   1712,   29.3999996,           7.
   1713,   29.2999992,           7.
   1714,   29.2000008,           7.
   1715,   29.1000004,           7.
   1716,          29.,           7.
   1717,   28.8999996,           7.
   1718,   28.7999992,           7.
   1719,   28.7000008,           7.
   1720,   28.6000004,           7.
   1721,         28.5,           7.
   1722,   28.3999996,           7.
   1723,   28.2999992,           7.
   1724,   28.2000008,           7.
   1725,   28.1000004,           7.
   1726,          28.,           7.
   1727,   27.8999996,           7.
   1728,   27.7999992,           7.
   1729,   27.7000008,           7.
   1730,   27.6000004,           7.
   1731,         27.5,           7.
   1732,   27.3999996,           7.
   1733,   27.2999992,           7.
   1734,   27.2000008,           7.
   1735,   27.1000004,           7.
   1736,          27.,           7.
   1737,   26.8999996,           7.
   1738,   26.7999992,           7.
   1739,   26.7000008,           7.
   1740,   26.6000004,           7.
   1741,         26.5,           7.
   1742,   26.3999996,           7.
   1743,   26.2999992,           7.
   1744,   26.2000008,           7.
   1745,   26.1000004,           7.
   1746,          26.,           7.
   1747,   25.8999996,           7.
   1748,   25.7999992,           7.
   1749,   25.7000008,           7.
   1750,   25.6000004,           7.
   1751,         25.5,           7.
   1752,   25.3999996,           7.
   1753,   25.2999992,           7.
   1754,   25.2000008,           7.
   1755,   25.1000004,           7.
   1756,          25.,           7.
   1757,   24.8999996,           7.
   1758,   24.7999992,           7.
   1759,   24.7000008,           7.
   1760,   24.6000004,           7.
   1761,         24.5,           7.
   1762,   24.3999996,           7.
   1763,   24.2999992,           7.
   1764,   24.2000008,           7.
   1765,   24.1000004,           7.
   1766,          24.,           7.
   1767,   23.8999996,           7.
   1768,   23.7999992,           7.
   1769,   23.7000008,           7.
   1770,   23.6000004,           7.
   1771,         23.5,           7.
   1772,   23.3999996,           7.
   1773,   23.2999992,           7.
   1774,   23.2000008,           7.
   1775,   23.1000004,           7.
   1776,          23.,           7.
   1777,   22.8999996,           7.
   1778,   22.7999992,           7.
   1779,   22.7000008,           7.
   1780,   22.6000004,           7.
   1781,         22.5,           7.
   1782,   22.3999996,           7.
   1783,   22.2999992,           7.
   1784,   22.2000008,           7.
   1785,   22.1000004,           7.
   1786,          22.,           7.
   1787,   21.8999996,           7.
   1788,   21.7999992,           7.
   1789,   21.7000008,           7.
   1790,   21.6000004,           7.
   1791,         21.5,           7.
   1792,   21.3999996,           7.
   1793,   21.2999992,           7.
   1794,   21.2000008,           7.
   1795,   21.1000004,           7.
   1796,          21.,           7.
   1797,   20.8999996,           7.
   1798,   20.7999992,           7.
   1799,   20.7000008,           7.
   1800,   20.6000004,           7.
   1801,         20.5,           7.
   1802,   20.3999996,           7.
   1803,   20.2999992,           7.
   1804,   20.2000008,           7.
   1805,   20.1000004,           7.
   1806,          20.,           7.
   1807,   19.8999996,           7.
   1808,   19.7999992,           7.
   1809,   19.7000008,           7.
   1810,   19.6000004,           7.
   1811,         19.5,           7.
   1812,   19.3999996,           7.
   1813,   19.2999992,           7.
   1814,   19.2000008,           7.
   1815,   19.1000004,           7.
   1816,          19.,           7.
   1817,   18.8999996,           7.
   1818,   18.7999992,           7.
   1819,   18.7000008,           7.
   1820,   18.6000004,           7.
   1821,         18.5,           7.
   1822,   18.3999996,           7.
   1823,   18.2999992,           7.
   1824,   18.2000008,           7.
   1825,   18.1000004,           7.
   1826,          18.,           7.
   1827,   17.8999996,           7.
   1828,   17.7999992,           7.
   1829,   17.7000008,           7.
   1830,   17.6000004,           7.
   1831,         17.5,           7.
   1832,   17.3999996,           7.
   1833,   17.2999992,           7.
   1834,   17.2000008,           7.
   1835,   17.1000004,           7.
   1836,          17.,           7.
   1837,   16.8999996,           7.
   1838,   16.7999992,           7.
   1839,   16.7000008,           7.
   1840,   16.6000004,           7.
   1841,         16.5,           7.
   1842,   16.3999996,           7.
   1843,   16.2999992,           7.
   1844,   16.2000008,           7.
   1845,   16.1000004,           7.
   1846,          16.,           7.
   1847,   15.8999996,           7.
   1848,   15.8000002,           7.
   1849,   15.6999998,           7.
   1850,   15.6000004,           7.
   1851,         15.5,           7.
   1852,   15.3999996,           7.
   1853,   15.3000002,           7.
   1854,   15.1999998,           7.
   1855,   15.1000004,           7.
   1856,          15.,           7.
   1857,   14.8999996,           7.
   1858,   14.8000002,           7.
   1859,   14.6999998,           7.
   1860,   14.6000004,           7.
   1861,         14.5,           7.
   1862,   14.3999996,           7.
   1863,   14.3000002,           7.
   1864,   14.1999998,           7.
   1865,   14.1000004,           7.
   1866,          14.,           7.
   1867,   13.8999996,           7.
   1868,   13.8000002,           7.
   1869,   13.6999998,           7.
   1870,   13.6000004,           7.
   1871,         13.5,           7.
   1872,   13.3999996,           7.
   1873,   13.3000002,           7.
   1874,   13.1999998,           7.
   1875,   13.1000004,           7.
   1876,          13.,           7.
   1877,   12.8999996,           7.
   1878,   12.8000002,           7.
   1879,   12.6999998,           7.
   1880,   12.6000004,           7.
   1881,         12.5,           7.
   1882,   12.3999996,           7.
   1883,   12.3000002,           7.
   1884,   12.1999998,           7.
   1885,   12.1000004,           7.
   1886,          12.,           7.
   1887,   11.8999996,           7.
   1888,   11.8000002,           7.
   1889,   11.6999998,           7.
   1890,   11.6000004,           7.
   1891,         11.5,           7.
   1892,   11.3999996,           7.
   1893,   11.3000002,           7.
   1894,   11.1999998,           7.
   1895,   11.1000004,           7.
   1896,          11.,           7.
   1897,   10.8999996,           7.
   1898,   10.8000002,           7.
   1899,   10.6999998,           7.
   1900,   10.6000004,           7.
   1901,         10.5,           7.
   1902,   10.3999996,           7.
   1903,   10.3000002,           7.
   1904,   10.1999998,           7.
   1905,   10.1000004,           7.
   1906,          10.,           7.
   1907,   9.89999962,           7.
   1908,   9.80000019,           7.
   1909,   9.69999981,           7.
   1910,   9.60000038,           7.
   1911,          9.5,           7.
   1912,   9.39999962,           7.
   1913,   9.30000019,           7.
   1914,   9.19999981,           7.
   1915,   9.10000038,           7.
   1916,           9.,           7.
   1917,   8.89999962,           7.
   1918,   8.80000019,           7.
   1919,   8.69999981,           7.
   1920,   8.60000038,           7.
   1921,          8.5,           7.
   1922,   8.39999962,           7.
   1923,   8.30000019,           7.
   1924,   8.19999981,           7.
   1925,   8.10000038,           7.
   1926,           8.,           7.
   1927,    7.9000001,           7.
   1928,   7.80000019,           7.
   1929,   7.69999981,           7.
   1930,    7.5999999,           7.
   1931,          7.5,           7.
   1932,    7.4000001,           7.
   1933,   7.30000019,           7.
   1934,   7.19999981,           7.
   1935,    7.0999999,           7.
   1936,           7.,           7.
   1937,    6.9000001,           7.
   1938,   6.80000019,           7.
   1939,   6.69999981,           7.
   1940,    6.5999999,           7.
   1941,          6.5,           7.
   1942,    6.4000001,           7.
   1943,   6.30000019,           7.
   1944,   6.19999981,           7.
   1945,    6.0999999,           7.
   1946,           6.,           7.
   1947,    5.9000001,           7.
   1948,   5.80000019,           7.
   1949,   5.69999981,           7.
   1950,    5.5999999,           7.
   1951,          5.5,           7.
   1952,    5.4000001,           7.
   1953,   5.30000019,           7.
   1954,   5.19999981,           7.
   1955,    5.0999999,           7.
   1956,           5.,           7.
   1957,    4.9000001,           7.
   1958,   4.80000019,           7.
   1959,   4.69999981,           7.
   1960,    4.5999999,           7.
   1961,          4.5,           7.
   1962,    4.4000001,           7.
   1963,   4.30000019,           7.
   1964,   4.19999981,           7.
   1965,    4.0999999,           7.
   1966,           4.,           7.
   1967,    3.9000001,           7.
   1968,   3.79999995,           7.
   1969,   3.70000005,           7.
   1970,    3.5999999,           7.
   1971,          3.5,           7.
   1972,    3.4000001,           7.
   1973,   3.29999995,           7.
   1974,   3.20000005,           7.
   1975,    3.0999999,           7.
   1976,           3.,           7.
   1977,    2.9000001,           7.
   1978,   2.79999995,           7.
   1979,   2.70000005,           7.
   1980,    2.5999999,           7.
   1981,          2.5,           7.
   1982,    2.4000001,           7.
   1983,   2.29999995,           7.
   1984,   2.20000005,           7.
   1985,    2.0999999,           7.
   1986,           2.,           7.
   1987,   1.89999998,           7.
   1988,   1.79999995,           7.
   1989,   1.70000005,           7.
   1990,   1.60000002,           7.
   1991,          1.5,           7.
   1992,   1.39999998,           7.
   1993,   1.29999995,           7.
   1994,   1.20000005,           7.
   1995,   1.10000002,           7.
   1996,           1.,           7.
   1997,  0.899999976,           7.
   1998,  0.800000012,           7.
   1999,  0.699999988,           7.
   2000,  0.600000024,           7.
   2001,          0.5,           7.
   2002,  0.400000006,           7.
   2003,  0.300000012,           7.
   2004,  0.200000003,           7.
   2005,  0.100000001,           7.
   2006, -0.100000001,   5.83333349
   2007, -0.200000003,   5.83333349
   2008, -0.300000012,   5.83333349
   2009, -0.400000006,   5.83333349
   2010,         -0.5,   5.83333349
   2011, -0.600000024,   5.83333349
   2012, -0.699999988,   5.83333349
   2013, -0.800000012,   5.83333349
   2014, -0.899999976,   5.83333349
   2015,          -1.,   5.83333349
   2016,  -1.10000002,   5.83333349
   2017,  -1.20000005,   5.83333349
   2018,  -1.29999995,   5.83333349
   2019,  -1.39999998,   5.83333349
   2020,         -1.5,   5.83333349
   2021,  -1.60000002,   5.83333349
   2022,  -1.70000005,   5.83333349
   2023,  -1.79999995,   5.83333349
   2024,  -1.89999998,   5.83333349
   2025,          -2.,   5.83333349
   2026,   -2.0999999,   5.83333349
   2027,  -2.20000005,   5.83333349
   2028,  -2.29999995,   5.83333349
   2029,   -2.4000001,   5.83333349
   2030,         -2.5,   5.83333349
   2031,   -2.5999999,   5.83333349
   2032,  -2.70000005,   5.83333349
   2033,  -2.79999995,   5.83333349
   2034,   -2.9000001,   5.83333349
   2035,          -3.,   5.83333349
   2036,   -3.0999999,   5.83333349
   2037,  -3.20000005,   5.83333349
   2038,  -3.29999995,   5.83333349
   2039,   -3.4000001,   5.83333349
   2040,         -3.5,   5.83333349
   2041,   -3.5999999,   5.83333349
   2042,  -3.70000005,   5.83333349
   2043,  -3.79999995,   5.83333349
   2044,   -3.9000001,   5.83333349
   2045,          -4.,   5.83333349
   2046,   -4.0999999,   5.83333349
   2047,  -4.19999981,   5.83333349
   2048,  -4.30000019,   5.83333349
   2049,   -4.4000001,   5.83333349
   2050,         -4.5,   5.83333349
   2051,   -4.5999999,   5.83333349
   2052,  -4.69999981,   5.83333349
   2053,  -4.80000019,   5.83333349
   2054,   -4.9000001,   5.83333349
   2055,          -5.,   5.83333349
   2056,   -5.0999999,   5.83333349
   2057,  -5.19999981,   5.83333349
   2058,  -5.30000019,   5.83333349
   2059,   -5.4000001,   5.83333349
   2060,         -5.5,   5.83333349
   2061,   -5.5999999,   5.83333349
   2062,  -5.69999981,   5.83333349
   2063,  -5.80000019,   5.83333349
   2064,   -5.9000001,   5.83333349
   2065,          -6.,   5.83333349
   2066,   -6.0999999,   5.83333349
   2067,  -6.19999981,   5.83333349
   2068,  -6.30000019,   5.83333349
   2069,   -6.4000001,   5.83333349
   2070,         -6.5,   5.83333349
   2071,   -6.5999999,   5.83333349
   2072,  -6.69999981,   5.83333349
   2073,  -6.80000019,   5.83333349
   2074,   -6.9000001,   5.83333349
   2075,          -7.,   5.83333349
   2076,   -7.0999999,   5.83333349
   2077,  -7.19999981,   5.83333349
   2078,  -7.30000019,   5.83333349
   2079,   -7.4000001,   5.83333349
   2080,         -7.5,   5.83333349
   2081,   -7.5999999,   5.83333349
   2082,  -7.69999981,   5.83333349
   2083,  -7.80000019,   5.83333349
   2084,   -7.9000001,   5.83333349
   2085,          -8.,   5.83333349
   2086,  -8.10000038,   5.83333349
   2087,  -8.19999981,   5.83333349
   2088,  -8.30000019,   5.83333349
   2089,  -8.39999962,   5.83333349
   2090,         -8.5,   5.83333349
   2091,  -8.60000038,   5.83333349
   2092,  -8.69999981,   5.83333349
   2093,  -8.80000019,   5.83333349
   2094,  -8.89999962,   5.83333349
   2095,          -9.,   5.83333349
   2096,  -9.10000038,   5.83333349
   2097,  -9.19999981,   5.83333349
   2098,  -9.30000019,   5.83333349
   2099,  -9.39999962,   5.83333349
   2100,         -9.5,   5.83333349
   2101,  -9.60000038,   5.83333349
   2102,  -9.69999981,   5.83333349
   2103,  -9.80000019,   5.83333349
   2104,  -9.89999962,   5.83333349
   2105,         -10.,   5.83333349
   2106,  -10.1000004,   5.83333349
   2107,  -10.1999998,   5.83333349
   2108,  -10.3000002,   5.83333349
   2109,  -10.3999996,   5.83333349
   2110,        -10.5,   5.83333349
   2111,  -10.6000004,   5.83333349
   2112,  -10.6999998,   5.83333349
   2113,  -10.8000002,   5.83333349
   2114,  -10.8999996,   5.83333349
   2115,         -11.,   5.83333349
   2116,  -11.1000004,   5.83333349
   2117,  -11.1999998,   5.83333349
   2118,  -11.3000002,   5.83333349
   2119,  -11.3999996,   5.83333349
   2120,        -11.5,   5.83333349
   2121,  -11.6000004,   5.83333349
   2122,  -11.6999998,   5.83333349
   2123,  -11.8000002,   5.83333349
   2124,  -11.8999996,   5.83333349
   2125,         -12.,   5.83333349
   2126,  -12.1000004,   5.83333349
   2127,  -12.1999998,   5.83333349
   2128,  -12.3000002,   5.83333349
   2129,  -12.3999996,   5.83333349
   2130,        -12.5,   5.83333349
   2131,  -12.6000004,   5.83333349
   2132,  -12.6999998,   5.83333349
   2133,  -12.8000002,   5.83333349
   2134,  -12.8999996,   5.83333349
   2135,         -13.,   5.83333349
   2136,  -13.1000004,   5.83333349
   2137,  -13.1999998,   5.83333349
   2138,  -13.3000002,   5.83333349
   2139,  -13.3999996,   5.83333349
   2140,        -13.5,   5.83333349
   2141,  -13.6000004,   5.83333349
   2142,  -13.6999998,   5.83333349
   2143,  -13.8000002,   5.83333349
   2144,  -13.8999996,   5.83333349
   2145,         -14.,   5.83333349
   2146,  -14.1000004,   5.83333349
   2147,  -14.1999998,   5.83333349
   2148,  -14.3000002,   5.83333349
   2149,  -14.3999996,   5.83333349
   2150,        -14.5,   5.83333349
   2151,  -14.6000004,   5.83333349
   2152,  -14.6999998,   5.83333349
   2153,  -14.8000002,   5.83333349
   2154,  -14.8999996,   5.83333349
   2155,         -15.,   5.83333349
   2156,  -15.1000004,   5.83333349
   2157,  -15.1999998,   5.83333349
   2158,  -15.3000002,   5.83333349
   2159,  -15.3999996,   5.83333349
   2160,        -15.5,   5.83333349
   2161,  -15.6000004,   5.83333349
   2162,  -15.6999998,   5.83333349
   2163,  -15.8000002,   5.83333349
   2164,  -15.8999996,   5.83333349
   2165,         -16.,   5.83333349
   2166,  -16.1000004,   5.83333349
   2167,  -16.2000008,   5.83333349
   2168,  -16.2999992,   5.83333349
   2169,  -16.3999996,   5.83333349
   2170,        -16.5,   5.83333349
   2171,  -16.6000004,   5.83333349
   2172,  -16.7000008,   5.83333349
   2173,  -16.7999992,   5.83333349
   2174,  -16.8999996,   5.83333349
   2175,         -17.,   5.83333349
   2176,  -17.1000004,   5.83333349
   2177,  -17.2000008,   5.83333349
   2178,  -17.2999992,   5.83333349
   2179,  -17.3999996,   5.83333349
   2180,        -17.5,   5.83333349
   2181,  -17.6000004,   5.83333349
   2182,  -17.7000008,   5.83333349
   2183,  -17.7999992,   5.83333349
   2184,  -17.8999996,   5.83333349
   2185,         -18.,   5.83333349
   2186,  -18.1000004,   5.83333349
   2187,  -18.2000008,   5.83333349
   2188,  -18.2999992,   5.83333349
   2189,  -18.3999996,   5.83333349
   2190,        -18.5,   5.83333349
   2191,  -18.6000004,   5.83333349
   2192,  -18.7000008,   5.83333349
   2193,  -18.7999992,   5.83333349
   2194,  -18.8999996,   5.83333349
   2195,         -19.,   5.83333349
   2196,  -19.1000004,   5.83333349
   2197,  -19.2000008,   5.83333349
   2198,  -19.2999992,   5.83333349
   2199,  -19.3999996,   5.83333349
   2200,        -19.5,   5.83333349
   2201,  -19.6000004,   5.83333349
   2202,  -19.7000008,   5.83333349
   2203,  -19.7999992,   5.83333349
   2204,  -19.8999996,   5.83333349
   2205,         -20.,   5.83333349
   2206,  -20.1000004,   5.83333349
   2207,  -20.2000008,   5.83333349
   2208,  -20.2999992,   5.83333349
   2209,  -20.3999996,   5.83333349
   2210,        -20.5,   5.83333349
   2211,  -20.6000004,   5.83333349
   2212,  -20.7000008,   5.83333349
   2213,  -20.7999992,   5.83333349
   2214,  -20.8999996,   5.83333349
   2215,         -21.,   5.83333349
   2216,  -21.1000004,   5.83333349
   2217,  -21.2000008,   5.83333349
   2218,  -21.2999992,   5.83333349
   2219,  -21.3999996,   5.83333349
   2220,        -21.5,   5.83333349
   2221,  -21.6000004,   5.83333349
   2222,  -21.7000008,   5.83333349
   2223,  -21.7999992,   5.83333349
   2224,  -21.8999996,   5.83333349
   2225,         -22.,   5.83333349
   2226,  -22.1000004,   5.83333349
   2227,  -22.2000008,   5.83333349
   2228,  -22.2999992,   5.83333349
   2229,  -22.3999996,   5.83333349
   2230,        -22.5,   5.83333349
   2231,  -22.6000004,   5.83333349
   2232,  -22.7000008,   5.83333349
   2233,  -22.7999992,   5.83333349
   2234,  -22.8999996,   5.83333349
   2235,         -23.,   5.83333349
   2236,  -23.1000004,   5.83333349
   2237,  -23.2000008,   5.83333349
   2238,  -23.2999992,   5.83333349
   2239,  -23.3999996,   5.83333349
   2240,        -23.5,   5.83333349
   2241,  -23.6000004,   5.83333349
   2242,  -23.7000008,   5.83333349
   2243,  -23.7999992,   5.83333349
   2244,  -23.8999996,   5.83333349
   2245,         -24.,   5.83333349
   2246,  -24.1000004,   5.83333349
   2247,  -24.2000008,   5.83333349
   2248,  -24.2999992,   5.83333349
   2249,  -24.3999996,   5.83333349
   2250,        -24.5,   5.83333349
   2251,  -24.6000004,   5.83333349
   2252,  -24.7000008,   5.83333349
   2253,  -24.7999992,   5.83333349
   2254,  -24.8999996,   5.83333349
   2255,         -25.,   5.83333349
   2256,  -25.1000004,   5.83333349
   2257,  -25.2000008,   5.83333349
   2258,  -25.2999992,   5.83333349
   2259,  -25.3999996,   5.83333349
   2260,        -25.5,   5.83333349
   2261,  -25.6000004,   5.83333349
   2262,  -25.7000008,   5.83333349
   2263,  -25.7999992,   5.83333349
   2264,  -25.8999996,   5.83333349
   2265,         -26.,   5.83333349
   2266,  -26.1000004,   5.83333349
   2267,  -26.2000008,   5.83333349
   2268,  -26.2999992,   5.83333349
   2269,  -26.3999996,   5.83333349
   2270,        -26.5,   5.83333349
   2271,  -26.6000004,   5.83333349
   2272,  -26.7000008,   5.83333349
   2273,  -26.7999992,   5.83333349
   2274,  -26.8999996,   5.83333349
   2275,         -27.,   5.83333349
   2276,  -27.1000004,   5.83333349
   2277,  -27.2000008,   5.83333349
   2278,  -27.2999992,   5.83333349
   2279,  -27.3999996,   5.83333349
   2280,        -27.5,   5.83333349
   2281,  -27.6000004,   5.83333349
   2282,  -27.7000008,   5.83333349
   2283,  -27.7999992,   5.83333349
   2284,  -27.8999996,   5.83333349
   2285,         -28.,   5.83333349
   2286,  -28.1000004,   5.83333349
   2287,  -28.2000008,   5.83333349
   2288,  -28.2999992,   5.83333349
   2289,  -28.3999996,   5.83333349
   2290,        -28.5,   5.83333349
   2291,  -28.6000004,   5.83333349
   2292,  -28.7000008,   5.83333349
   2293,  -28.7999992,   5.83333349
   2294,  -28.8999996,   5.83333349
   2295,         -29.,   5.83333349
   2296,  -29.1000004,   5.83333349
   2297,  -29.2000008,   5.83333349
   2298,  -29.2999992,   5.83333349
   2299,  -29.3999996,   5.83333349
   2300,        -29.5,   5.83333349
   2301,  -29.6000004,   5.83333349
   2302,  -29.7000008,   5.83333349
   2303,  -29.7999992,   5.83333349
   2304,  -29.8999996,   5.83333349
   2305,         -30.,   5.83333349
   2306,  -30.1000004,   5.83333349
   2307,  -30.2000008,   5.83333349
   2308,  -30.2999992,   5.83333349
   2309,  -30.3999996,   5.83333349
   2310,        -30.5,   5.83333349
   2311,  -30.6000004,   5.83333349
   2312,  -30.7000008,   5.83333349
   2313,  -30.7999992,   5.83333349
   2314,  -30.8999996,   5.83333349
   2315,         -31.,   5.83333349
   2316,  -31.1000004,   5.83333349
   2317,  -31.2000008,   5.83333349
   2318,  -31.2999992,   5.83333349
   2319,  -31.3999996,   5.83333349
   2320,        -31.5,   5.83333349
   2321,  -31.6000004,   5.83333349
   2322,  -31.7000008,   5.83333349
   2323,  -31.7999992,   5.83333349
   2324,  -31.8999996,   5.83333349
   2325,         -32.,   5.83333349
   2326,  -32.0999985,   5.83333349
   2327,  -32.2000008,   5.83333349
   2328,  -32.2999992,   5.83333349
   2329,  -32.4000015,   5.83333349
   2330,        -32.5,   5.83333349
   2331,  -32.5999985,   5.83333349
   2332,  -32.7000008,   5.83333349
   2333,  -32.7999992,   5.83333349
   2334,  -32.9000015,   5.83333349
   2335,         -33.,   5.83333349
   2336,  -33.0999985,   5.83333349
   2337,  -33.2000008,   5.83333349
   2338,  -33.2999992,   5.83333349
   2339,  -33.4000015,   5.83333349
   2340,        -33.5,   5.83333349
   2341,  -33.5999985,   5.83333349
   2342,  -33.7000008,   5.83333349
   2343,  -33.7999992,   5.83333349
   2344,  -33.9000015,   5.83333349
   2345,         -34.,   5.83333349
   2346,  -34.0999985,   5.83333349
   2347,  -34.2000008,   5.83333349
   2348,  -34.2999992,   5.83333349
   2349,  -34.4000015,   5.83333349
   2350,        -34.5,   5.83333349
   2351,  -34.5999985,   5.83333349
   2352,  -34.7000008,   5.83333349
   2353,  -34.7999992,   5.83333349
   2354,  -34.9000015,   5.83333349
   2355,         -35.,   5.83333349
   2356,  -35.0999985,   5.83333349
   2357,  -35.2000008,   5.83333349
   2358,  -35.2999992,   5.83333349
   2359,  -35.4000015,   5.83333349
   2360,        -35.5,   5.83333349
   2361,  -35.5999985,   5.83333349
   2362,  -35.7000008,   5.83333349
   2363,  -35.7999992,   5.83333349
   2364,  -35.9000015,   5.83333349
   2365,         -36.,   5.83333349
   2366,  -36.0999985,   5.83333349
   2367,  -36.2000008,   5.83333349
   2368,  -36.2999992,   5.83333349
   2369,  -36.4000015,   5.83333349
   2370,        -36.5,   5.83333349
   2371,  -36.5999985,   5.83333349
   2372,  -36.7000008,   5.83333349
   2373,  -36.7999992,   5.83333349
   2374,  -36.9000015,   5.83333349
   2375,         -37.,   5.83333349
   2376,  -37.0999985,   5.83333349
   2377,  -37.2000008,   5.83333349
   2378,  -37.2999992,   5.83333349
   2379,  -37.4000015,   5.83333349
   2380,        -37.5,   5.83333349
   2381,  -37.5999985,   5.83333349
   2382,  -37.7000008,   5.83333349
   2383,  -37.7999992,   5.83333349
   2384,  -37.9000015,   5.83333349
   2385,         -38.,   5.83333349
   2386,  -38.0999985,   5.83333349
   2387,  -38.2000008,   5.83333349
   2388,  -38.2999992,   5.83333349
   2389,  -38.4000015,   5.83333349
   2390,        -38.5,   5.83333349
   2391,  -38.5999985,   5.83333349
   2392,  -38.7000008,   5.83333349
   2393,  -38.7999992,   5.83333349
   2394,  -38.9000015,   5.83333349
   2395,         -39.,   5.83333349
   2396,  -39.0999985,   5.83333349
   2397,  -39.2000008,   5.83333349
   2398,  -39.2999992,   5.83333349
   2399,  -39.4000015,   5.83333349
   2400,        -39.5,   5.83333349
   2401,  -39.5999985,   5.83333349
   2402,  -39.7000008,   5.83333349
   2403,  -39.7999992,   5.83333349
   2404,  -39.9000015,   5.83333349
   2405,         -40.,   5.83333349
   2406,  -40.0999985,   5.83333349
   2407,  -40.2000008,   5.83333349
   2408,  -40.2999992,   5.83333349
   2409,  -40.4000015,   5.83333349
   2410,        -40.5,   5.83333349
   2411,  -40.5999985,   5.83333349
   2412,  -40.7000008,   5.83333349
   2413,  -40.7999992,   5.83333349
   2414,  -40.9000015,   5.83333349
   2415,         -41.,   5.83333349
   2416,  -41.0999985,   5.83333349
   2417,  -41.2000008,   5.83333349
   2418,  -41.2999992,   5.83333349
   2419,  -41.4000015,   5.83333349
   2420,        -41.5,   5.83333349
   2421,  -41.5999985,   5.83333349
   2422,  -41.7000008,   5.83333349
   2423,  -41.7999992,   5.83333349
   2424,  -41.9000015,   5.83333349
   2425,         -42.,   5.83333349
   2426,  -42.0999985,   5.83333349
   2427,  -42.2000008,   5.83333349
   2428,  -42.2999992,   5.83333349
   2429,  -42.4000015,   5.83333349
   2430,        -42.5,   5.83333349
   2431,  -42.5999985,   5.83333349
   2432,  -42.7000008,   5.83333349
   2433,  -42.7999992,   5.83333349
   2434,  -42.9000015,   5.83333349
   2435,         -43.,   5.83333349
   2436,  -43.0999985,   5.83333349
   2437,  -43.2000008,   5.83333349
   2438,  -43.2999992,   5.83333349
   2439,  -43.4000015,   5.83333349
   2440,        -43.5,   5.83333349
   2441,  -43.5999985,   5.83333349
   2442,  -43.7000008,   5.83333349
   2443,  -43.7999992,   5.83333349
   2444,  -43.9000015,   5.83333349
   2445,         -44.,   5.83333349
   2446,  -44.0999985,   5.83333349
   2447,  -44.2000008,   5.83333349
   2448,  -44.2999992,   5.83333349
   2449,  -44.4000015,   5.83333349
   2450,        -44.5,   5.83333349
   2451,  -44.5999985,   5.83333349
   2452,  -44.7000008,   5.83333349
   2453,  -44.7999992,   5.83333349
   2454,  -44.9000015,   5.83333349
   2455,         -45.,   5.83333349
   2456,  -45.0999985,   5.83333349
   2457,  -45.2000008,   5.83333349
   2458,  -45.2999992,   5.83333349
   2459,  -45.4000015,   5.83333349
   2460,        -45.5,   5.83333349
   2461,  -45.5999985,   5.83333349
   2462,  -45.7000008,   5.83333349
   2463,  -45.7999992,   5.83333349
   2464,  -45.9000015,   5.83333349
   2465,         -46.,   5.83333349
   2466,  -46.0999985,   5.83333349
   2467,  -46.2000008,   5.83333349
   2468,  -46.2999992,   5.83333349
   2469,  -46.4000015,   5.83333349
   2470,        -46.5,   5.83333349
   2471,  -46.5999985,   5.83333349
   2472,  -46.7000008,   5.83333349
   2473,  -46.7999992,   5.83333349
   2474,  -46.9000015,   5.83333349
   2475,         -47.,   5.83333349
   2476,  -47.0999985,   5.83333349
   2477,  -47.2000008,   5.83333349
   2478,  -47.2999992,   5.83333349
   2479,  -47.4000015,   5.83333349
   2480,        -47.5,   5.83333349
   2481,  -47.5999985,   5.83333349
   2482,  -47.7000008,   5.83333349
   2483,  -47.7999992,   5.83333349
   2484,  -47.9000015,   5.83333349
   2485,         -48.,   5.83333349
   2486,  -48.0999985,   5.83333349
   2487,  -48.2000008,   5.83333349
   2488,  -48.2999992,   5.83333349
   2489,  -48.4000015,   5.83333349
   2490,        -48.5,   5.83333349
   2491,  -48.5999985,   5.83333349
   2492,  -48.7000008,   5.83333349
   2493,  -48.7999992,   5.83333349
   2494,  -48.9000015,   5.83333349
   2495,         -49.,   5.83333349
   2496,  -49.0999985,   5.83333349
   2497,  -49.2000008,   5.83333349
   2498,  -49.2999992,   5.83333349
   2499,  -49.4000015,   5.83333349
   2500,        -49.5,   5.83333349
   2501,  -49.5999985,   5.83333349
   2502,  -49.7000008,   5.83333349
   2503,  -49.7999992,   5.83333349
   2504,  -49.9000015,   5.83333349
   2505,  0.100000001,   5.83333349
   2506,  0.200000003,   5.83333349
   2507,  0.300000012,   5.83333349
   2508,  0.400000006,   5.83333349
   2509,          0.5,   5.83333349
   2510,  0.600000024,   5.83333349
   2511,  0.699999988,   5.83333349
   2512,  0.800000012,   5.83333349
   2513,  0.899999976,   5.83333349
   2514,           1.,   5.83333349
   2515,   1.10000002,   5.83333349
   2516,   1.20000005,   5.83333349
   2517,   1.29999995,   5.83333349
   2518,   1.39999998,   5.83333349
   2519,          1.5,   5.83333349
   2520,   1.60000002,   5.83333349
   2521,   1.70000005,   5.83333349
   2522,   1.79999995,   5.83333349
   2523,   1.89999998,   5.83333349
   2524,           2.,   5.83333349
   2525,    2.0999999,   5.83333349
   2526,   2.20000005,   5.83333349
   2527,   2.29999995,   5.83333349
   2528,    2.4000001,   5.83333349
   2529,          2.5,   5.83333349
   2530,    2.5999999,   5.83333349
   2531,   2.70000005,   5.83333349
   2532,   2.79999995,   5.83333349
   2533,    2.9000001,   5.83333349
   2534,           3.,   5.83333349
   2535,    3.0999999,   5.83333349
   2536,   3.20000005,   5.83333349
   2537,   3.29999995,   5.83333349
   2538,    3.4000001,   5.83333349
   2539,          3.5,   5.83333349
   2540,    3.5999999,   5.83333349
   2541,   3.70000005,   5.83333349
   2542,   3.79999995,   5.83333349
   2543,    3.9000001,   5.83333349
   2544,           4.,   5.83333349
   2545,    4.0999999,   5.83333349
   2546,   4.19999981,   5.83333349
   2547,   4.30000019,   5.83333349
   2548,    4.4000001,   5.83333349
   2549,          4.5,   5.83333349
   2550,    4.5999999,   5.83333349
   2551,   4.69999981,   5.83333349
   2552,   4.80000019,   5.83333349
   2553,    4.9000001,   5.83333349
   2554,           5.,   5.83333349
   2555,    5.0999999,   5.83333349
   2556,   5.19999981,   5.83333349
   2557,   5.30000019,   5.83333349
   2558,    5.4000001,   5.83333349
   2559,          5.5,   5.83333349
   2560,    5.5999999,   5.83333349
   2561,   5.69999981,   5.83333349
   2562,   5.80000019,   5.83333349
   2563,    5.9000001,   5.83333349
   2564,           6.,   5.83333349
   2565,    6.0999999,   5.83333349
   2566,   6.19999981,   5.83333349
   2567,   6.30000019,   5.83333349
   2568,    6.4000001,   5.83333349
   2569,          6.5,   5.83333349
   2570,    6.5999999,   5.83333349
   2571,   6.69999981,   5.83333349
   2572,   6.80000019,   5.83333349
   2573,    6.9000001,   5.83333349
   2574,           7.,   5.83333349
   2575,    7.0999999,   5.83333349
   2576,   7.19999981,   5.83333349
   2577,   7.30000019,   5.83333349
   2578,    7.4000001,   5.83333349
   2579,          7.5,   5.83333349
   2580,    7.5999999,   5.83333349
   2581,   7.69999981,   5.83333349
   2582,   7.80000019,   5.83333349
   2583,    7.9000001,   5.83333349
   2584,           8.,   5.83333349
   2585,   8.10000038,   5.83333349
   2586,   8.19999981,   5.83333349
   2587,   8.30000019,   5.83333349
   2588,   8.39999962,   5.83333349
   2589,          8.5,   5.83333349
   2590,   8.60000038,   5.83333349
   2591,   8.69999981,   5.83333349
   2592,   8.80000019,   5.83333349
   2593,   8.89999962,   5.83333349
   2594,           9.,   5.83333349
   2595,   9.10000038,   5.83333349
   2596,   9.19999981,   5.83333349
   2597,   9.30000019,   5.83333349
   2598,   9.39999962,   5.83333349
   2599,          9.5,   5.83333349
   2600,   9.60000038,   5.83333349
   2601,   9.69999981,   5.83333349
   2602,   9.80000019,   5.83333349
   2603,   9.89999962,   5.83333349
   2604,          10.,   5.83333349
   2605,   10.1000004,   5.83333349
   2606,   10.1999998,   5.83333349
   2607,   10.3000002,   5.83333349
   2608,   10.3999996,   5.83333349
   2609,         10.5,   5.83333349
   2610,   10.6000004,   5.83333349
   2611,   10.6999998,   5.83333349
   2612,   10.8000002,   5.83333349
   2613,   10.8999996,   5.83333349
   2614,          11.,   5.83333349
   2615,   11.1000004,   5.83333349
   2616,   11.1999998,   5.83333349
   2617,   11.3000002,   5.83333349
   2618,   11.3999996,   5.83333349
   2619,         11.5,   5.83333349
   2620,   11.6000004,   5.83333349
   2621,   11.6999998,   5.83333349
   2622,   11.8000002,   5.83333349
   2623,   11.8999996,   5.83333349
   2624,          12.,   5.83333349
   2625,   12.1000004,   5.83333349
   2626,   12.1999998,   5.83333349
   2627,   12.3000002,   5.83333349
   2628,   12.3999996,   5.83333349
   2629,         12.5,   5.83333349
   2630,   12.6000004,   5.83333349
   2631,   12.6999998,   5.83333349
   2632,   12.8000002,   5.83333349
   2633,   12.8999996,   5.83333349
   2634,          13.,   5.83333349
   2635,   13.1000004,   5.83333349
   2636,   13.1999998,   5.83333349
   2637,   13.3000002,   5.83333349
   2638,   13.3999996,   5.83333349
   2639,         13.5,   5.83333349
   2640,   13.6000004,   5.83333349
   2641,   13.6999998,   5.83333349
   2642,   13.8000002,   5.83333349
   2643,   13.8999996,   5.83333349
   2644,          14.,   5.83333349
   2645,   14.1000004,   5.83333349
   2646,   14.1999998,   5.83333349
   2647,   14.3000002,   5.83333349
   2648,   14.3999996,   5.83333349
   2649,         14.5,   5.83333349
   2650,   14.6000004,   5.83333349
   2651,   14.6999998,   5.83333349
   2652,   14.8000002,   5.83333349
   2653,   14.8999996,   5.83333349
   2654,          15.,   5.83333349
   2655,   15.1000004,   5.83333349
   2656,   15.1999998,   5.83333349
   2657,   15.3000002,   5.83333349
   2658,   15.3999996,   5.83333349
   2659,         15.5,   5.83333349
   2660,   15.6000004,   5.83333349
   2661,   15.6999998,   5.83333349
   2662,   15.8000002,   5.83333349
   2663,   15.8999996,   5.83333349
   2664,          16.,   5.83333349
   2665,   16.1000004,   5.83333349
   2666,   16.2000008,   5.83333349
   2667,   16.2999992,   5.83333349
   2668,   16.3999996,   5.83333349
   2669,         16.5,   5.83333349
   2670,   16.6000004,   5.83333349
   2671,   16.7000008,   5.83333349
   2672,   16.7999992,   5.83333349
   2673,   16.8999996,   5.83333349
   2674,          17.,   5.83333349
   2675,   17.1000004,   5.83333349
   2676,   17.2000008,   5.83333349
   2677,   17.2999992,   5.83333349
   2678,   17.3999996,   5.83333349
   2679,         17.5,   5.83333349
   2680,   17.6000004,   5.83333349
   2681,   17.7000008,   5.83333349
   2682,   17.7999992,   5.83333349
   2683,   17.8999996,   5.83333349
   2684,          18.,   5.83333349
   2685,   18.1000004,   5.83333349
   2686,   18.2000008,   5.83333349
   2687,   18.2999992,   5.83333349
   2688,   18.3999996,   5.83333349
   2689,         18.5,   5.83333349
   2690,   18.6000004,   5.83333349
   2691,   18.7000008,   5.83333349
   2692,   18.7999992,   5.83333349
   2693,   18.8999996,   5.83333349
   2694,          19.,   5.83333349
   2695,   19.1000004,   5.83333349
   2696,   19.2000008,   5.83333349
   2697,   19.2999992,   5.83333349
   2698,   19.3999996,   5.83333349
   2699,         19.5,   5.83333349
   2700,   19.6000004,   5.83333349
   2701,   19.7000008,   5.83333349
   2702,   19.7999992,   5.83333349
   2703,   19.8999996,   5.83333349
   2704,          20.,   5.83333349
   2705,   20.1000004,   5.83333349
   2706,   20.2000008,   5.83333349
   2707,   20.2999992,   5.83333349
   2708,   20.3999996,   5.83333349
   2709,         20.5,   5.83333349
   2710,   20.6000004,   5.83333349
   2711,   20.7000008,   5.83333349
   2712,   20.7999992,   5.83333349
   2713,   20.8999996,   5.83333349
   2714,          21.,   5.83333349
   2715,   21.1000004,   5.83333349
   2716,   21.2000008,   5.83333349
   2717,   21.2999992,   5.83333349
   2718,   21.3999996,   5.83333349
   2719,         21.5,   5.83333349
   2720,   21.6000004,   5.83333349
   2721,   21.7000008,   5.83333349
   2722,   21.7999992,   5.83333349
   2723,   21.8999996,   5.83333349
   2724,          22.,   5.83333349
   2725,   22.1000004,   5.83333349
   2726,   22.2000008,   5.83333349
   2727,   22.2999992,   5.83333349
   2728,   22.3999996,   5.83333349
   2729,         22.5,   5.83333349
   2730,   22.6000004,   5.83333349
   2731,   22.7000008,   5.83333349
   2732,   22.7999992,   5.83333349
   2733,   22.8999996,   5.83333349
   2734,          23.,   5.83333349
   2735,   23.1000004,   5.83333349
   2736,   23.2000008,   5.83333349
   2737,   23.2999992,   5.83333349
   2738,   23.3999996,   5.83333349
   2739,         23.5,   5.83333349
   2740,   23.6000004,   5.83333349
   2741,   23.7000008,   5.83333349
   2742,   23.7999992,   5.83333349
   2743,   23.8999996,   5.83333349
   2744,          24.,   5.83333349
   2745,   24.1000004,   5.83333349
   2746,   24.2000008,   5.83333349
   2747,   24.2999992,   5.83333349
   2748,   24.3999996,   5.83333349
   2749,         24.5,   5.83333349
   2750,   24.6000004,   5.83333349
   2751,   24.7000008,   5.83333349
   2752,   24.7999992,   5.83333349
   2753,   24.8999996,   5.83333349
   2754,          25.,   5.83333349
   2755,   25.1000004,   5.83333349
   2756,   25.2000008,   5.83333349
   2757,   25.2999992,   5.83333349
   2758,   25.3999996,   5.83333349
   2759,         25.5,   5.83333349
   2760,   25.6000004,   5.83333349
   2761,   25.7000008,   5.83333349
   2762,   25.7999992,   5.83333349
   2763,   25.8999996,   5.83333349
   2764,          26.,   5.83333349
   2765,   26.1000004,   5.83333349
   2766,   26.2000008,   5.83333349
   2767,   26.2999992,   5.83333349
   2768,   26.3999996,   5.83333349
   2769,         26.5,   5.83333349
   2770,   26.6000004,   5.83333349
   2771,   26.7000008,   5.83333349
   2772,   26.7999992,   5.83333349
   2773,   26.8999996,   5.83333349
   2774,          27.,   5.83333349
   2775,   27.1000004,   5.83333349
   2776,   27.2000008,   5.83333349
   2777,   27.2999992,   5.83333349
   2778,   27.3999996,   5.83333349
   2779,         27.5,   5.83333349
   2780,   27.6000004,   5.83333349
   2781,   27.7000008,   5.83333349
   2782,   27.7999992,   5.83333349
   2783,   27.8999996,   5.83333349
   2784,          28.,   5.83333349
   2785,   28.1000004,   5.83333349
   2786,   28.2000008,   5.83333349
   2787,   28.2999992,   5.83333349
   2788,   28.3999996,   5.83333349
   2789,         28.5,   5.83333349
   2790,   28.6000004,   5.83333349
   2791,   28.7000008,   5.83333349
   2792,   28.7999992,   5.83333349
   2793,   28.8999996,   5.83333349
   2794,          29.,   5.83333349
   2795,   29.1000004,   5.83333349
   2796,   29.2000008,   5.83333349
   2797,   29.2999992,   5.83333349
   2798,   29.3999996,   5.83333349
   2799,         29.5,   5.83333349
   2800,   29.6000004,   5.83333349
   2801,   29.7000008,   5.83333349
   2802,   29.7999992,   5.83333349
   2803,   29.8999996,   5.83333349
   2804,          30.,   5.83333349
   2805,   30.1000004,   5.83333349
   2806,   30.2000008,   5.83333349
   2807,   30.2999992,   5.83333349
   2808,   30.3999996,   5.83333349
   2809,         30.5,   5.83333349
   2810,   30.6000004,   5.83333349
   2811,   30.7000008,   5.83333349
   2812,   30.7999992,   5.83333349
   2813,   30.8999996,   5.83333349
   2814,          31.,   5.83333349
   2815,   31.1000004,   5.83333349
   2816,   31.2000008,   5.83333349
   2817,   31.2999992,   5.83333349
   2818,   31.3999996,   5.83333349
   2819,         31.5,   5.83333349
   2820,   31.6000004,   5.83333349
   2821,   31.7000008,   5.83333349
   2822,   31.7999992,   5.83333349
   2823,   31.8999996,   5.83333349
   2824,          32.,   5.83333349
   2825,   32.0999985,   5.83333349
   2826,   32.2000008,   5.83333349
   2827,   32.2999992,   5.83333349
   2828,   32.4000015,   5.83333349
   2829,         32.5,   5.83333349
   2830,   32.5999985,   5.83333349
   2831,   32.7000008,   5.83333349
   2832,   32.7999992,   5.83333349
   2833,   32.9000015,   5.83333349
   2834,          33.,   5.83333349
   2835,   33.0999985,   5.83333349
   2836,   33.2000008,   5.83333349
   2837,   33.2999992,   5.83333349
   2838,   33.4000015,   5.83333349
   2839,         33.5,   5.83333349
   2840,   33.5999985,   5.83333349
   2841,   33.7000008,   5.83333349
   2842,   33.7999992,   5.83333349
   2843,   33.9000015,   5.83333349
   2844,          34.,   5.83333349
   2845,   34.0999985,   5.83333349
   2846,   34.2000008,   5.83333349
   2847,   34.2999992,   5.83333349
   2848,   34.4000015,   5.83333349
   2849,         34.5,   5.83333349
   2850,   34.5999985,   5.83333349
   2851,   34.7000008,   5.83333349
   2852,   34.7999992,   5.83333349
   2853,   34.9000015,   5.83333349
   2854,          35.,   5.83333349
   2855,   35.0999985,   5.83333349
   2856,   35.2000008,   5.83333349
   2857,   35.2999992,   5.83333349
   2858,   35.4000015,   5.83333349
   2859,         35.5,   5.83333349
   2860,   35.5999985,   5.83333349
   2861,   35.7000008,   5.83333349
   2862,   35.7999992,   5.83333349
   2863,   35.9000015,   5.83333349
   2864,          36.,   5.83333349
   2865,   36.0999985,   5.83333349
   2866,   36.2000008,   5.83333349
   2867,   36.2999992,   5.83333349
   2868,   36.4000015,   5.83333349
   2869,         36.5,   5.83333349
   2870,   36.5999985,   5.83333349
   2871,   36.7000008,   5.83333349
   2872,   36.7999992,   5.83333349
   2873,   36.9000015,   5.83333349
   2874,          37.,   5.83333349
   2875,   37.0999985,   5.83333349
   2876,   37.2000008,   5.83333349
   2877,   37.2999992,   5.83333349
   2878,   37.4000015,   5.83333349
   2879,         37.5,   5.83333349
   2880,   37.5999985,   5.83333349
   2881,   37.7000008,   5.83333349
   2882,   37.7999992,   5.83333349
   2883,   37.9000015,   5.83333349
   2884,          38.,   5.83333349
   2885,   38.0999985,   5.83333349
   2886,   38.2000008,   5.83333349
   2887,   38.2999992,   5.83333349
   2888,   38.4000015,   5.83333349
   2889,         38.5,   5.83333349
   2890,   38.5999985,   5.83333349
   2891,   38.7000008,   5.83333349
   2892,   38.7999992,   5.83333349
   2893,   38.9000015,   5.83333349
   2894,          39.,   5.83333349
   2895,   39.0999985,   5.83333349
   2896,   39.2000008,   5.83333349
   2897,   39.2999992,   5.83333349
   2898,   39.4000015,   5.83333349
   2899,         39.5,   5.83333349
   2900,   39.5999985,   5.83333349
   2901,   39.7000008,   5.83333349
   2902,   39.7999992,   5.83333349
   2903,   39.9000015,   5.83333349
   2904,          40.,   5.83333349
   2905,   40.0999985,   5.83333349
   2906,   40.2000008,   5.83333349
   2907,   40.2999992,   5.83333349
   2908,   40.4000015,   5.83333349
   2909,         40.5,   5.83333349
   2910,   40.5999985,   5.83333349
   2911,   40.7000008,   5.83333349
   2912,   40.7999992,   5.83333349
   2913,   40.9000015,   5.83333349
   2914,          41.,   5.83333349
   2915,   41.0999985,   5.83333349
   2916,   41.2000008,   5.83333349
   2917,   41.2999992,   5.83333349
   2918,   41.4000015,   5.83333349
   2919,         41.5,   5.83333349
   2920,   41.5999985,   5.83333349
   2921,   41.7000008,   5.83333349
   2922,   41.7999992,   5.83333349
   2923,   41.9000015,   5.83333349
   2924,          42.,   5.83333349
   2925,   42.0999985,   5.83333349
   2926,   42.2000008,   5.83333349
   2927,   42.2999992,   5.83333349
   2928,   42.4000015,   5.83333349
   2929,         42.5,   5.83333349
   2930,   42.5999985,   5.83333349
   2931,   42.7000008,   5.83333349
   2932,   42.7999992,   5.83333349
   2933,   42.9000015,   5.83333349
   2934,          43.,   5.83333349
   2935,   43.0999985,   5.83333349
   2936,   43.2000008,   5.83333349
   2937,   43.2999992,   5.83333349
   2938,   43.4000015,   5.83333349
   2939,         43.5,   5.83333349
   2940,   43.5999985,   5.83333349
   2941,   43.7000008,   5.83333349
   2942,   43.7999992,   5.83333349
   2943,   43.9000015,   5.83333349
   2944,          44.,   5.83333349
   2945,   44.0999985,   5.83333349
   2946,   44.2000008,   5.83333349
   2947,   44.2999992,   5.83333349
   2948,   44.4000015,   5.83333349
   2949,         44.5,   5.83333349
   2950,   44.5999985,   5.83333349
   2951,   44.7000008,   5.83333349
   2952,   44.7999992,   5.83333349
   2953,   44.9000015,   5.83333349
   2954,          45.,   5.83333349
   2955,   45.0999985,   5.83333349
   2956,   45.2000008,   5.83333349
   2957,   45.2999992,   5.83333349
   2958,   45.4000015,   5.83333349
   2959,         45.5,   5.83333349
   2960,   45.5999985,   5.83333349
   2961,   45.7000008,   5.83333349
   2962,   45.7999992,   5.83333349
   2963,   45.9000015,   5.83333349
   2964,          46.,   5.83333349
   2965,   46.0999985,   5.83333349
   2966,   46.2000008,   5.83333349
   2967,   46.2999992,   5.83333349
   2968,   46.4000015,   5.83333349
   2969,         46.5,   5.83333349
   2970,   46.5999985,   5.83333349
   2971,   46.7000008,   5.83333349
   2972,   46.7999992,   5.83333349
   2973,   46.9000015,   5.83333349
   2974,          47.,   5.83333349
   2975,   47.0999985,   5.83333349
   2976,   47.2000008,   5.83333349
   2977,   47.2999992,   5.83333349
   2978,   47.4000015,   5.83333349
   2979,         47.5,   5.83333349
   2980,   47.5999985,   5.83333349
   2981,   47.7000008,   5.83333349
   2982,   47.7999992,   5.83333349
   2983,   47.9000015,   5.83333349
   2984,          48.,   5.83333349
   2985,   48.0999985,   5.83333349
   2986,   48.2000008,   5.83333349
   2987,   48.2999992,   5.83333349
   2988,   48.4000015,   5.83333349
   2989,         48.5,   5.83333349
   2990,   48.5999985,   5.83333349
   2991,   48.7000008,   5.83333349
   2992,   48.7999992,   5.83333349
   2993,   48.9000015,   5.83333349
   2994,          49.,   5.83333349
   2995,   49.0999985,   5.83333349
   2996,   49.2000008,   5.83333349
   2997,   49.2999992,   5.83333349
   2998,   49.4000015,   5.83333349
   2999,         49.5,   5.83333349
   3000,   49.5999985,   5.83333349
   3001,   49.7000008,   5.83333349
   3002,   49.7999992,   5.83333349
   3003,   49.9000015,   5.83333349
*Element, type=CPE4I
   1,    1,    7, 2006, 1006
   2,    7,    2,    8, 2006
   3, 1006, 2006, 2007, 1005
   4, 2006,    8,    9, 2007
   5, 1005, 2007, 2008, 1004
   6, 2007,    9,   10, 2008
   7, 1004, 2008, 2009, 1003
   8, 2008,   10,   11, 2009
   9, 1003, 2009, 2010, 1002
  10, 2009,   11,   12, 2010
  11, 1002, 2010, 2011, 1001
  12, 2010,   12,   13, 2011
  13, 1001, 2011, 2012, 1000
  14, 2011,   13,   14, 2012
  15, 1000, 2012, 2013,  999
  16, 2012,   14,   15, 2013
  17,  999, 2013, 2014,  998
  18, 2013,   15,   16, 2014
  19,  998, 2014, 2015,  997
  20, 2014,   16,   17, 2015
  21,  997, 2015, 2016,  996
  22, 2015,   17,   18, 2016
  23,  996, 2016, 2017,  995
  24, 2016,   18,   19, 2017
  25,  995, 2017, 2018,  994
  26, 2017,   19,   20, 2018
  27,  994, 2018, 2019,  993
  28, 2018,   20,   21, 2019
  29,  993, 2019, 2020,  992
  30, 2019,   21,   22, 2020
  31,  992, 2020, 2021,  991
  32, 2020,   22,   23, 2021
  33,  991, 2021, 2022,  990
  34, 2021,   23,   24, 2022
  35,  990, 2022, 2023,  989
  36, 2022,   24,   25, 2023
  37,  989, 2023, 2024,  988
  38, 2023,   25,   26, 2024
  39,  988, 2024, 2025,  987
  40, 2024,   26,   27, 2025
  41,  987, 2025, 2026,  986
  42, 2025,   27,   28, 2026
  43,  986, 2026, 2027,  985
  44, 2026,   28,   29, 2027
  45,  985, 2027, 2028,  984
  46, 2027,   29,   30, 2028
  47,  984, 2028, 2029,  983
  48, 2028,   30,   31, 2029
  49,  983, 2029, 2030,  982
  50, 2029,   31,   32, 2030
  51,  982, 2030, 2031,  981
  52, 2030,   32,   33, 2031
  53,  981, 2031, 2032,  980
  54, 2031,   33,   34, 2032
  55,  980, 2032, 2033,  979
  56, 2032,   34,   35, 2033
  57,  979, 2033, 2034,  978
  58, 2033,   35,   36, 2034
  59,  978, 2034, 2035,  977
  60, 2034,   36,   37, 2035
  61,  977, 2035, 2036,  976
  62, 2035,   37,   38, 2036
  63,  976, 2036, 2037,  975
  64, 2036,   38,   39, 2037
  65,  975, 2037, 2038,  974
  66, 2037,   39,   40, 2038
  67,  974, 2038, 2039,  973
  68, 2038,   40,   41, 2039
  69,  973, 2039, 2040,  972
  70, 2039,   41,   42, 2040
  71,  972, 2040, 2041,  971
  72, 2040,   42,   43, 2041
  73,  971, 2041, 2042,  970
  74, 2041,   43,   44, 2042
  75,  970, 2042, 2043,  969
  76, 2042,   44,   45, 2043
  77,  969, 2043, 2044,  968
  78, 2043,   45,   46, 2044
  79,  968, 2044, 2045,  967
  80, 2044,   46,   47, 2045
  81,  967, 2045, 2046,  966
  82, 2045,   47,   48, 2046
  83,  966, 2046, 2047,  965
  84, 2046,   48,   49, 2047
  85,  965, 2047, 2048,  964
  86, 2047,   49,   50, 2048
  87,  964, 2048, 2049,  963
  88, 2048,   50,   51, 2049
  89,  963, 2049, 2050,  962
  90, 2049,   51,   52, 2050
  91,  962, 2050, 2051,  961
  92, 2050,   52,   53, 2051
  93,  961, 2051, 2052,  960
  94, 2051,   53,   54, 2052
  95,  960, 2052, 2053,  959
  96, 2052,   54,   55, 2053
  97,  959, 2053, 2054,  958
  98, 2053,   55,   56, 2054
  99,  958, 2054, 2055,  957
 100, 2054,   56,   57, 2055
 101,  957, 2055, 2056,  956
 102, 2055,   57,   58, 2056
 103,  956, 2056, 2057,  955
 104, 2056,   58,   59, 2057
 105,  955, 2057, 2058,  954
 106, 2057,   59,   60, 2058
 107,  954, 2058, 2059,  953
 108, 2058,   60,   61, 2059
 109,  953, 2059, 2060,  952
 110, 2059,   61,   62, 2060
 111,  952, 2060, 2061,  951
 112, 2060,   62,   63, 2061
 113,  951, 2061, 2062,  950
 114, 2061,   63,   64, 2062
 115,  950, 2062, 2063,  949
 116, 2062,   64,   65, 2063
 117,  949, 2063, 2064,  948
 118, 2063,   65,   66, 2064
 119,  948, 2064, 2065,  947
 120, 2064,   66,   67, 2065
 121,  947, 2065, 2066,  946
 122, 2065,   67,   68, 2066
 123,  946, 2066, 2067,  945
 124, 2066,   68,   69, 2067
 125,  945, 2067, 2068,  944
 126, 2067,   69,   70, 2068
 127,  944, 2068, 2069,  943
 128, 2068,   70,   71, 2069
 129,  943, 2069, 2070,  942
 130, 2069,   71,   72, 2070
 131,  942, 2070, 2071,  941
 132, 2070,   72,   73, 2071
 133,  941, 2071, 2072,  940
 134, 2071,   73,   74, 2072
 135,  940, 2072, 2073,  939
 136, 2072,   74,   75, 2073
 137,  939, 2073, 2074,  938
 138, 2073,   75,   76, 2074
 139,  938, 2074, 2075,  937
 140, 2074,   76,   77, 2075
 141,  937, 2075, 2076,  936
 142, 2075,   77,   78, 2076
 143,  936, 2076, 2077,  935
 144, 2076,   78,   79, 2077
 145,  935, 2077, 2078,  934
 146, 2077,   79,   80, 2078
 147,  934, 2078, 2079,  933
 148, 2078,   80,   81, 2079
 149,  933, 2079, 2080,  932
 150, 2079,   81,   82, 2080
 151,  932, 2080, 2081,  931
 152, 2080,   82,   83, 2081
 153,  931, 2081, 2082,  930
 154, 2081,   83,   84, 2082
 155,  930, 2082, 2083,  929
 156, 2082,   84,   85, 2083
 157,  929, 2083, 2084,  928
 158, 2083,   85,   86, 2084
 159,  928, 2084, 2085,  927
 160, 2084,   86,   87, 2085
 161,  927, 2085, 2086,  926
 162, 2085,   87,   88, 2086
 163,  926, 2086, 2087,  925
 164, 2086,   88,   89, 2087
 165,  925, 2087, 2088,  924
 166, 2087,   89,   90, 2088
 167,  924, 2088, 2089,  923
 168, 2088,   90,   91, 2089
 169,  923, 2089, 2090,  922
 170, 2089,   91,   92, 2090
 171,  922, 2090, 2091,  921
 172, 2090,   92,   93, 2091
 173,  921, 2091, 2092,  920
 174, 2091,   93,   94, 2092
 175,  920, 2092, 2093,  919
 176, 2092,   94,   95, 2093
 177,  919, 2093, 2094,  918
 178, 2093,   95,   96, 2094
 179,  918, 2094, 2095,  917
 180, 2094,   96,   97, 2095
 181,  917, 2095, 2096,  916
 182, 2095,   97,   98, 2096
 183,  916, 2096, 2097,  915
 184, 2096,   98,   99, 2097
 185,  915, 2097, 2098,  914
 186, 2097,   99,  100, 2098
 187,  914, 2098, 2099,  913
 188, 2098,  100,  101, 2099
 189,  913, 2099, 2100,  912
 190, 2099,  101,  102, 2100
 191,  912, 2100, 2101,  911
 192, 2100,  102,  103, 2101
 193,  911, 2101, 2102,  910
 194, 2101,  103,  104, 2102
 195,  910, 2102, 2103,  909
 196, 2102,  104,  105, 2103
 197,  909, 2103, 2104,  908
 198, 2103,  105,  106, 2104
 199,  908, 2104, 2105,  907
 200, 2104,  106,  107, 2105
 201,  907, 2105, 2106,  906
 202, 2105,  107,  108, 2106
 203,  906, 2106, 2107,  905
 204, 2106,  108,  109, 2107
 205,  905, 2107, 2108,  904
 206, 2107,  109,  110, 2108
 207,  904, 2108, 2109,  903
 208, 2108,  110,  111, 2109
 209,  903, 2109, 2110,  902
 210, 2109,  111,  112, 2110
 211,  902, 2110, 2111,  901
 212, 2110,  112,  113, 2111
 213,  901, 2111, 2112,  900
 214, 2111,  113,  114, 2112
 215,  900, 2112, 2113,  899
 216, 2112,  114,  115, 2113
 217,  899, 2113, 2114,  898
 218, 2113,  115,  116, 2114
 219,  898, 2114, 2115,  897
 220, 2114,  116,  117, 2115
 221,  897, 2115, 2116,  896
 222, 2115,  117,  118, 2116
 223,  896, 2116, 2117,  895
 224, 2116,  118,  119, 2117
 225,  895, 2117, 2118,  894
 226, 2117,  119,  120, 2118
 227,  894, 2118, 2119,  893
 228, 2118,  120,  121, 2119
 229,  893, 2119, 2120,  892
 230, 2119,  121,  122, 2120
 231,  892, 2120, 2121,  891
 232, 2120,  122,  123, 2121
 233,  891, 2121, 2122,  890
 234, 2121,  123,  124, 2122
 235,  890, 2122, 2123,  889
 236, 2122,  124,  125, 2123
 237,  889, 2123, 2124,  888
 238, 2123,  125,  126, 2124
 239,  888, 2124, 2125,  887
 240, 2124,  126,  127, 2125
 241,  887, 2125, 2126,  886
 242, 2125,  127,  128, 2126
 243,  886, 2126, 2127,  885
 244, 2126,  128,  129, 2127
 245,  885, 2127, 2128,  884
 246, 2127,  129,  130, 2128
 247,  884, 2128, 2129,  883
 248, 2128,  130,  131, 2129
 249,  883, 2129, 2130,  882
 250, 2129,  131,  132, 2130
 251,  882, 2130, 2131,  881
 252, 2130,  132,  133, 2131
 253,  881, 2131, 2132,  880
 254, 2131,  133,  134, 2132
 255,  880, 2132, 2133,  879
 256, 2132,  134,  135, 2133
 257,  879, 2133, 2134,  878
 258, 2133,  135,  136, 2134
 259,  878, 2134, 2135,  877
 260, 2134,  136,  137, 2135
 261,  877, 2135, 2136,  876
 262, 2135,  137,  138, 2136
 263,  876, 2136, 2137,  875
 264, 2136,  138,  139, 2137
 265,  875, 2137, 2138,  874
 266, 2137,  139,  140, 2138
 267,  874, 2138, 2139,  873
 268, 2138,  140,  141, 2139
 269,  873, 2139, 2140,  872
 270, 2139,  141,  142, 2140
 271,  872, 2140, 2141,  871
 272, 2140,  142,  143, 2141
 273,  871, 2141, 2142,  870
 274, 2141,  143,  144, 2142
 275,  870, 2142, 2143,  869
 276, 2142,  144,  145, 2143
 277,  869, 2143, 2144,  868
 278, 2143,  145,  146, 2144
 279,  868, 2144, 2145,  867
 280, 2144,  146,  147, 2145
 281,  867, 2145, 2146,  866
 282, 2145,  147,  148, 2146
 283,  866, 2146, 2147,  865
 284, 2146,  148,  149, 2147
 285,  865, 2147, 2148,  864
 286, 2147,  149,  150, 2148
 287,  864, 2148, 2149,  863
 288, 2148,  150,  151, 2149
 289,  863, 2149, 2150,  862
 290, 2149,  151,  152, 2150
 291,  862, 2150, 2151,  861
 292, 2150,  152,  153, 2151
 293,  861, 2151, 2152,  860
 294, 2151,  153,  154, 2152
 295,  860, 2152, 2153,  859
 296, 2152,  154,  155, 2153
 297,  859, 2153, 2154,  858
 298, 2153,  155,  156, 2154
 299,  858, 2154, 2155,  857
 300, 2154,  156,  157, 2155
 301,  857, 2155, 2156,  856
 302, 2155,  157,  158, 2156
 303,  856, 2156, 2157,  855
 304, 2156,  158,  159, 2157
 305,  855, 2157, 2158,  854
 306, 2157,  159,  160, 2158
 307,  854, 2158, 2159,  853
 308, 2158,  160,  161, 2159
 309,  853, 2159, 2160,  852
 310, 2159,  161,  162, 2160
 311,  852, 2160, 2161,  851
 312, 2160,  162,  163, 2161
 313,  851, 2161, 2162,  850
 314, 2161,  163,  164, 2162
 315,  850, 2162, 2163,  849
 316, 2162,  164,  165, 2163
 317,  849, 2163, 2164,  848
 318, 2163,  165,  166, 2164
 319,  848, 2164, 2165,  847
 320, 2164,  166,  167, 2165
 321,  847, 2165, 2166,  846
 322, 2165,  167,  168, 2166
 323,  846, 2166, 2167,  845
 324, 2166,  168,  169, 2167
 325,  845, 2167, 2168,  844
 326, 2167,  169,  170, 2168
 327,  844, 2168, 2169,  843
 328, 2168,  170,  171, 2169
 329,  843, 2169, 2170,  842
 330, 2169,  171,  172, 2170
 331,  842, 2170, 2171,  841
 332, 2170,  172,  173, 2171
 333,  841, 2171, 2172,  840
 334, 2171,  173,  174, 2172
 335,  840, 2172, 2173,  839
 336, 2172,  174,  175, 2173
 337,  839, 2173, 2174,  838
 338, 2173,  175,  176, 2174
 339,  838, 2174, 2175,  837
 340, 2174,  176,  177, 2175
 341,  837, 2175, 2176,  836
 342, 2175,  177,  178, 2176
 343,  836, 2176, 2177,  835
 344, 2176,  178,  179, 2177
 345,  835, 2177, 2178,  834
 346, 2177,  179,  180, 2178
 347,  834, 2178, 2179,  833
 348, 2178,  180,  181, 2179
 349,  833, 2179, 2180,  832
 350, 2179,  181,  182, 2180
 351,  832, 2180, 2181,  831
 352, 2180,  182,  183, 2181
 353,  831, 2181, 2182,  830
 354, 2181,  183,  184, 2182
 355,  830, 2182, 2183,  829
 356, 2182,  184,  185, 2183
 357,  829, 2183, 2184,  828
 358, 2183,  185,  186, 2184
 359,  828, 2184, 2185,  827
 360, 2184,  186,  187, 2185
 361,  827, 2185, 2186,  826
 362, 2185,  187,  188, 2186
 363,  826, 2186, 2187,  825
 364, 2186,  188,  189, 2187
 365,  825, 2187, 2188,  824
 366, 2187,  189,  190, 2188
 367,  824, 2188, 2189,  823
 368, 2188,  190,  191, 2189
 369,  823, 2189, 2190,  822
 370, 2189,  191,  192, 2190
 371,  822, 2190, 2191,  821
 372, 2190,  192,  193, 2191
 373,  821, 2191, 2192,  820
 374, 2191,  193,  194, 2192
 375,  820, 2192, 2193,  819
 376, 2192,  194,  195, 2193
 377,  819, 2193, 2194,  818
 378, 2193,  195,  196, 2194
 379,  818, 2194, 2195,  817
 380, 2194,  196,  197, 2195
 381,  817, 2195, 2196,  816
 382, 2195,  197,  198, 2196
 383,  816, 2196, 2197,  815
 384, 2196,  198,  199, 2197
 385,  815, 2197, 2198,  814
 386, 2197,  199,  200, 2198
 387,  814, 2198, 2199,  813
 388, 2198,  200,  201, 2199
 389,  813, 2199, 2200,  812
 390, 2199,  201,  202, 2200
 391,  812, 2200, 2201,  811
 392, 2200,  202,  203, 2201
 393,  811, 2201, 2202,  810
 394, 2201,  203,  204, 2202
 395,  810, 2202, 2203,  809
 396, 2202,  204,  205, 2203
 397,  809, 2203, 2204,  808
 398, 2203,  205,  206, 2204
 399,  808, 2204, 2205,  807
 400, 2204,  206,  207, 2205
 401,  807, 2205, 2206,  806
 402, 2205,  207,  208, 2206
 403,  806, 2206, 2207,  805
 404, 2206,  208,  209, 2207
 405,  805, 2207, 2208,  804
 406, 2207,  209,  210, 2208
 407,  804, 2208, 2209,  803
 408, 2208,  210,  211, 2209
 409,  803, 2209, 2210,  802
 410, 2209,  211,  212, 2210
 411,  802, 2210, 2211,  801
 412, 2210,  212,  213, 2211
 413,  801, 2211, 2212,  800
 414, 2211,  213,  214, 2212
 415,  800, 2212, 2213,  799
 416, 2212,  214,  215, 2213
 417,  799, 2213, 2214,  798
 418, 2213,  215,  216, 2214
 419,  798, 2214, 2215,  797
 420, 2214,  216,  217, 2215
 421,  797, 2215, 2216,  796
 422, 2215,  217,  218, 2216
 423,  796, 2216, 2217,  795
 424, 2216,  218,  219, 2217
 425,  795, 2217, 2218,  794
 426, 2217,  219,  220, 2218
 427,  794, 2218, 2219,  793
 428, 2218,  220,  221, 2219
 429,  793, 2219, 2220,  792
 430, 2219,  221,  222, 2220
 431,  792, 2220, 2221,  791
 432, 2220,  222,  223, 2221
 433,  791, 2221, 2222,  790
 434, 2221,  223,  224, 2222
 435,  790, 2222, 2223,  789
 436, 2222,  224,  225, 2223
 437,  789, 2223, 2224,  788
 438, 2223,  225,  226, 2224
 439,  788, 2224, 2225,  787
 440, 2224,  226,  227, 2225
 441,  787, 2225, 2226,  786
 442, 2225,  227,  228, 2226
 443,  786, 2226, 2227,  785
 444, 2226,  228,  229, 2227
 445,  785, 2227, 2228,  784
 446, 2227,  229,  230, 2228
 447,  784, 2228, 2229,  783
 448, 2228,  230,  231, 2229
 449,  783, 2229, 2230,  782
 450, 2229,  231,  232, 2230
 451,  782, 2230, 2231,  781
 452, 2230,  232,  233, 2231
 453,  781, 2231, 2232,  780
 454, 2231,  233,  234, 2232
 455,  780, 2232, 2233,  779
 456, 2232,  234,  235, 2233
 457,  779, 2233, 2234,  778
 458, 2233,  235,  236, 2234
 459,  778, 2234, 2235,  777
 460, 2234,  236,  237, 2235
 461,  777, 2235, 2236,  776
 462, 2235,  237,  238, 2236
 463,  776, 2236, 2237,  775
 464, 2236,  238,  239, 2237
 465,  775, 2237, 2238,  774
 466, 2237,  239,  240, 2238
 467,  774, 2238, 2239,  773
 468, 2238,  240,  241, 2239
 469,  773, 2239, 2240,  772
 470, 2239,  241,  242, 2240
 471,  772, 2240, 2241,  771
 472, 2240,  242,  243, 2241
 473,  771, 2241, 2242,  770
 474, 2241,  243,  244, 2242
 475,  770, 2242, 2243,  769
 476, 2242,  244,  245, 2243
 477,  769, 2243, 2244,  768
 478, 2243,  245,  246, 2244
 479,  768, 2244, 2245,  767
 480, 2244,  246,  247, 2245
 481,  767, 2245, 2246,  766
 482, 2245,  247,  248, 2246
 483,  766, 2246, 2247,  765
 484, 2246,  248,  249, 2247
 485,  765, 2247, 2248,  764
 486, 2247,  249,  250, 2248
 487,  764, 2248, 2249,  763
 488, 2248,  250,  251, 2249
 489,  763, 2249, 2250,  762
 490, 2249,  251,  252, 2250
 491,  762, 2250, 2251,  761
 492, 2250,  252,  253, 2251
 493,  761, 2251, 2252,  760
 494, 2251,  253,  254, 2252
 495,  760, 2252, 2253,  759
 496, 2252,  254,  255, 2253
 497,  759, 2253, 2254,  758
 498, 2253,  255,  256, 2254
 499,  758, 2254, 2255,  757
 500, 2254,  256,  257, 2255
 501,  757, 2255, 2256,  756
 502, 2255,  257,  258, 2256
 503,  756, 2256, 2257,  755
 504, 2256,  258,  259, 2257
 505,  755, 2257, 2258,  754
 506, 2257,  259,  260, 2258
 507,  754, 2258, 2259,  753
 508, 2258,  260,  261, 2259
 509,  753, 2259, 2260,  752
 510, 2259,  261,  262, 2260
 511,  752, 2260, 2261,  751
 512, 2260,  262,  263, 2261
 513,  751, 2261, 2262,  750
 514, 2261,  263,  264, 2262
 515,  750, 2262, 2263,  749
 516, 2262,  264,  265, 2263
 517,  749, 2263, 2264,  748
 518, 2263,  265,  266, 2264
 519,  748, 2264, 2265,  747
 520, 2264,  266,  267, 2265
 521,  747, 2265, 2266,  746
 522, 2265,  267,  268, 2266
 523,  746, 2266, 2267,  745
 524, 2266,  268,  269, 2267
 525,  745, 2267, 2268,  744
 526, 2267,  269,  270, 2268
 527,  744, 2268, 2269,  743
 528, 2268,  270,  271, 2269
 529,  743, 2269, 2270,  742
 530, 2269,  271,  272, 2270
 531,  742, 2270, 2271,  741
 532, 2270,  272,  273, 2271
 533,  741, 2271, 2272,  740
 534, 2271,  273,  274, 2272
 535,  740, 2272, 2273,  739
 536, 2272,  274,  275, 2273
 537,  739, 2273, 2274,  738
 538, 2273,  275,  276, 2274
 539,  738, 2274, 2275,  737
 540, 2274,  276,  277, 2275
 541,  737, 2275, 2276,  736
 542, 2275,  277,  278, 2276
 543,  736, 2276, 2277,  735
 544, 2276,  278,  279, 2277
 545,  735, 2277, 2278,  734
 546, 2277,  279,  280, 2278
 547,  734, 2278, 2279,  733
 548, 2278,  280,  281, 2279
 549,  733, 2279, 2280,  732
 550, 2279,  281,  282, 2280
 551,  732, 2280, 2281,  731
 552, 2280,  282,  283, 2281
 553,  731, 2281, 2282,  730
 554, 2281,  283,  284, 2282
 555,  730, 2282, 2283,  729
 556, 2282,  284,  285, 2283
 557,  729, 2283, 2284,  728
 558, 2283,  285,  286, 2284
 559,  728, 2284, 2285,  727
 560, 2284,  286,  287, 2285
 561,  727, 2285, 2286,  726
 562, 2285,  287,  288, 2286
 563,  726, 2286, 2287,  725
 564, 2286,  288,  289, 2287
 565,  725, 2287, 2288,  724
 566, 2287,  289,  290, 2288
 567,  724, 2288, 2289,  723
 568, 2288,  290,  291, 2289
 569,  723, 2289, 2290,  722
 570, 2289,  291,  292, 2290
 571,  722, 2290, 2291,  721
 572, 2290,  292,  293, 2291
 573,  721, 2291, 2292,  720
 574, 2291,  293,  294, 2292
 575,  720, 2292, 2293,  719
 576, 2292,  294,  295, 2293
 577,  719, 2293, 2294,  718
 578, 2293,  295,  296, 2294
 579,  718, 2294, 2295,  717
 580, 2294,  296,  297, 2295
 581,  717, 2295, 2296,  716
 582, 2295,  297,  298, 2296
 583,  716, 2296, 2297,  715
 584, 2296,  298,  299, 2297
 585,  715, 2297, 2298,  714
 586, 2297,  299,  300, 2298
 587,  714, 2298, 2299,  713
 588, 2298,  300,  301, 2299
 589,  713, 2299, 2300,  712
 590, 2299,  301,  302, 2300
 591,  712, 2300, 2301,  711
 592, 2300,  302,  303, 2301
 593,  711, 2301, 2302,  710
 594, 2301,  303,  304, 2302
 595,  710, 2302, 2303,  709
 596, 2302,  304,  305, 2303
 597,  709, 2303, 2304,  708
 598, 2303,  305,  306, 2304
 599,  708, 2304, 2305,  707
 600, 2304,  306,  307, 2305
 601,  707, 2305, 2306,  706
 602, 2305,  307,  308, 2306
 603,  706, 2306, 2307,  705
 604, 2306,  308,  309, 2307
 605,  705, 2307, 2308,  704
 606, 2307,  309,  310, 2308
 607,  704, 2308, 2309,  703
 608, 2308,  310,  311, 2309
 609,  703, 2309, 2310,  702
 610, 2309,  311,  312, 2310
 611,  702, 2310, 2311,  701
 612, 2310,  312,  313, 2311
 613,  701, 2311, 2312,  700
 614, 2311,  313,  314, 2312
 615,  700, 2312, 2313,  699
 616, 2312,  314,  315, 2313
 617,  699, 2313, 2314,  698
 618, 2313,  315,  316, 2314
 619,  698, 2314, 2315,  697
 620, 2314,  316,  317, 2315
 621,  697, 2315, 2316,  696
 622, 2315,  317,  318, 2316
 623,  696, 2316, 2317,  695
 624, 2316,  318,  319, 2317
 625,  695, 2317, 2318,  694
 626, 2317,  319,  320, 2318
 627,  694, 2318, 2319,  693
 628, 2318,  320,  321, 2319
 629,  693, 2319, 2320,  692
 630, 2319,  321,  322, 2320
 631,  692, 2320, 2321,  691
 632, 2320,  322,  323, 2321
 633,  691, 2321, 2322,  690
 634, 2321,  323,  324, 2322
 635,  690, 2322, 2323,  689
 636, 2322,  324,  325, 2323
 637,  689, 2323, 2324,  688
 638, 2323,  325,  326, 2324
 639,  688, 2324, 2325,  687
 640, 2324,  326,  327, 2325
 641,  687, 2325, 2326,  686
 642, 2325,  327,  328, 2326
 643,  686, 2326, 2327,  685
 644, 2326,  328,  329, 2327
 645,  685, 2327, 2328,  684
 646, 2327,  329,  330, 2328
 647,  684, 2328, 2329,  683
 648, 2328,  330,  331, 2329
 649,  683, 2329, 2330,  682
 650, 2329,  331,  332, 2330
 651,  682, 2330, 2331,  681
 652, 2330,  332,  333, 2331
 653,  681, 2331, 2332,  680
 654, 2331,  333,  334, 2332
 655,  680, 2332, 2333,  679
 656, 2332,  334,  335, 2333
 657,  679, 2333, 2334,  678
 658, 2333,  335,  336, 2334
 659,  678, 2334, 2335,  677
 660, 2334,  336,  337, 2335
 661,  677, 2335, 2336,  676
 662, 2335,  337,  338, 2336
 663,  676, 2336, 2337,  675
 664, 2336,  338,  339, 2337
 665,  675, 2337, 2338,  674
 666, 2337,  339,  340, 2338
 667,  674, 2338, 2339,  673
 668, 2338,  340,  341, 2339
 669,  673, 2339, 2340,  672
 670, 2339,  341,  342, 2340
 671,  672, 2340, 2341,  671
 672, 2340,  342,  343, 2341
 673,  671, 2341, 2342,  670
 674, 2341,  343,  344, 2342
 675,  670, 2342, 2343,  669
 676, 2342,  344,  345, 2343
 677,  669, 2343, 2344,  668
 678, 2343,  345,  346, 2344
 679,  668, 2344, 2345,  667
 680, 2344,  346,  347, 2345
 681,  667, 2345, 2346,  666
 682, 2345,  347,  348, 2346
 683,  666, 2346, 2347,  665
 684, 2346,  348,  349, 2347
 685,  665, 2347, 2348,  664
 686, 2347,  349,  350, 2348
 687,  664, 2348, 2349,  663
 688, 2348,  350,  351, 2349
 689,  663, 2349, 2350,  662
 690, 2349,  351,  352, 2350
 691,  662, 2350, 2351,  661
 692, 2350,  352,  353, 2351
 693,  661, 2351, 2352,  660
 694, 2351,  353,  354, 2352
 695,  660, 2352, 2353,  659
 696, 2352,  354,  355, 2353
 697,  659, 2353, 2354,  658
 698, 2353,  355,  356, 2354
 699,  658, 2354, 2355,  657
 700, 2354,  356,  357, 2355
 701,  657, 2355, 2356,  656
 702, 2355,  357,  358, 2356
 703,  656, 2356, 2357,  655
 704, 2356,  358,  359, 2357
 705,  655, 2357, 2358,  654
 706, 2357,  359,  360, 2358
 707,  654, 2358, 2359,  653
 708, 2358,  360,  361, 2359
 709,  653, 2359, 2360,  652
 710, 2359,  361,  362, 2360
 711,  652, 2360, 2361,  651
 712, 2360,  362,  363, 2361
 713,  651, 2361, 2362,  650
 714, 2361,  363,  364, 2362
 715,  650, 2362, 2363,  649
 716, 2362,  364,  365, 2363
 717,  649, 2363, 2364,  648
 718, 2363,  365,  366, 2364
 719,  648, 2364, 2365,  647
 720, 2364,  366,  367, 2365
 721,  647, 2365, 2366,  646
 722, 2365,  367,  368, 2366
 723,  646, 2366, 2367,  645
 724, 2366,  368,  369, 2367
 725,  645, 2367, 2368,  644
 726, 2367,  369,  370, 2368
 727,  644, 2368, 2369,  643
 728, 2368,  370,  371, 2369
 729,  643, 2369, 2370,  642
 730, 2369,  371,  372, 2370
 731,  642, 2370, 2371,  641
 732, 2370,  372,  373, 2371
 733,  641, 2371, 2372,  640
 734, 2371,  373,  374, 2372
 735,  640, 2372, 2373,  639
 736, 2372,  374,  375, 2373
 737,  639, 2373, 2374,  638
 738, 2373,  375,  376, 2374
 739,  638, 2374, 2375,  637
 740, 2374,  376,  377, 2375
 741,  637, 2375, 2376,  636
 742, 2375,  377,  378, 2376
 743,  636, 2376, 2377,  635
 744, 2376,  378,  379, 2377
 745,  635, 2377, 2378,  634
 746, 2377,  379,  380, 2378
 747,  634, 2378, 2379,  633
 748, 2378,  380,  381, 2379
 749,  633, 2379, 2380,  632
 750, 2379,  381,  382, 2380
 751,  632, 2380, 2381,  631
 752, 2380,  382,  383, 2381
 753,  631, 2381, 2382,  630
 754, 2381,  383,  384, 2382
 755,  630, 2382, 2383,  629
 756, 2382,  384,  385, 2383
 757,  629, 2383, 2384,  628
 758, 2383,  385,  386, 2384
 759,  628, 2384, 2385,  627
 760, 2384,  386,  387, 2385
 761,  627, 2385, 2386,  626
 762, 2385,  387,  388, 2386
 763,  626, 2386, 2387,  625
 764, 2386,  388,  389, 2387
 765,  625, 2387, 2388,  624
 766, 2387,  389,  390, 2388
 767,  624, 2388, 2389,  623
 768, 2388,  390,  391, 2389
 769,  623, 2389, 2390,  622
 770, 2389,  391,  392, 2390
 771,  622, 2390, 2391,  621
 772, 2390,  392,  393, 2391
 773,  621, 2391, 2392,  620
 774, 2391,  393,  394, 2392
 775,  620, 2392, 2393,  619
 776, 2392,  394,  395, 2393
 777,  619, 2393, 2394,  618
 778, 2393,  395,  396, 2394
 779,  618, 2394, 2395,  617
 780, 2394,  396,  397, 2395
 781,  617, 2395, 2396,  616
 782, 2395,  397,  398, 2396
 783,  616, 2396, 2397,  615
 784, 2396,  398,  399, 2397
 785,  615, 2397, 2398,  614
 786, 2397,  399,  400, 2398
 787,  614, 2398, 2399,  613
 788, 2398,  400,  401, 2399
 789,  613, 2399, 2400,  612
 790, 2399,  401,  402, 2400
 791,  612, 2400, 2401,  611
 792, 2400,  402,  403, 2401
 793,  611, 2401, 2402,  610
 794, 2401,  403,  404, 2402
 795,  610, 2402, 2403,  609
 796, 2402,  404,  405, 2403
 797,  609, 2403, 2404,  608
 798, 2403,  405,  406, 2404
 799,  608, 2404, 2405,  607
 800, 2404,  406,  407, 2405
 801,  607, 2405, 2406,  606
 802, 2405,  407,  408, 2406
 803,  606, 2406, 2407,  605
 804, 2406,  408,  409, 2407
 805,  605, 2407, 2408,  604
 806, 2407,  409,  410, 2408
 807,  604, 2408, 2409,  603
 808, 2408,  410,  411, 2409
 809,  603, 2409, 2410,  602
 810, 2409,  411,  412, 2410
 811,  602, 2410, 2411,  601
 812, 2410,  412,  413, 2411
 813,  601, 2411, 2412,  600
 814, 2411,  413,  414, 2412
 815,  600, 2412, 2413,  599
 816, 2412,  414,  415, 2413
 817,  599, 2413, 2414,  598
 818, 2413,  415,  416, 2414
 819,  598, 2414, 2415,  597
 820, 2414,  416,  417, 2415
 821,  597, 2415, 2416,  596
 822, 2415,  417,  418, 2416
 823,  596, 2416, 2417,  595
 824, 2416,  418,  419, 2417
 825,  595, 2417, 2418,  594
 826, 2417,  419,  420, 2418
 827,  594, 2418, 2419,  593
 828, 2418,  420,  421, 2419
 829,  593, 2419, 2420,  592
 830, 2419,  421,  422, 2420
 831,  592, 2420, 2421,  591
 832, 2420,  422,  423, 2421
 833,  591, 2421, 2422,  590
 834, 2421,  423,  424, 2422
 835,  590, 2422, 2423,  589
 836, 2422,  424,  425, 2423
 837,  589, 2423, 2424,  588
 838, 2423,  425,  426, 2424
 839,  588, 2424, 2425,  587
 840, 2424,  426,  427, 2425
 841,  587, 2425, 2426,  586
 842, 2425,  427,  428, 2426
 843,  586, 2426, 2427,  585
 844, 2426,  428,  429, 2427
 845,  585, 2427, 2428,  584
 846, 2427,  429,  430, 2428
 847,  584, 2428, 2429,  583
 848, 2428,  430,  431, 2429
 849,  583, 2429, 2430,  582
 850, 2429,  431,  432, 2430
 851,  582, 2430, 2431,  581
 852, 2430,  432,  433, 2431
 853,  581, 2431, 2432,  580
 854, 2431,  433,  434, 2432
 855,  580, 2432, 2433,  579
 856, 2432,  434,  435, 2433
 857,  579, 2433, 2434,  578
 858, 2433,  435,  436, 2434
 859,  578, 2434, 2435,  577
 860, 2434,  436,  437, 2435
 861,  577, 2435, 2436,  576
 862, 2435,  437,  438, 2436
 863,  576, 2436, 2437,  575
 864, 2436,  438,  439, 2437
 865,  575, 2437, 2438,  574
 866, 2437,  439,  440, 2438
 867,  574, 2438, 2439,  573
 868, 2438,  440,  441, 2439
 869,  573, 2439, 2440,  572
 870, 2439,  441,  442, 2440
 871,  572, 2440, 2441,  571
 872, 2440,  442,  443, 2441
 873,  571, 2441, 2442,  570
 874, 2441,  443,  444, 2442
 875,  570, 2442, 2443,  569
 876, 2442,  444,  445, 2443
 877,  569, 2443, 2444,  568
 878, 2443,  445,  446, 2444
 879,  568, 2444, 2445,  567
 880, 2444,  446,  447, 2445
 881,  567, 2445, 2446,  566
 882, 2445,  447,  448, 2446
 883,  566, 2446, 2447,  565
 884, 2446,  448,  449, 2447
 885,  565, 2447, 2448,  564
 886, 2447,  449,  450, 2448
 887,  564, 2448, 2449,  563
 888, 2448,  450,  451, 2449
 889,  563, 2449, 2450,  562
 890, 2449,  451,  452, 2450
 891,  562, 2450, 2451,  561
 892, 2450,  452,  453, 2451
 893,  561, 2451, 2452,  560
 894, 2451,  453,  454, 2452
 895,  560, 2452, 2453,  559
 896, 2452,  454,  455, 2453
 897,  559, 2453, 2454,  558
 898, 2453,  455,  456, 2454
 899,  558, 2454, 2455,  557
 900, 2454,  456,  457, 2455
 901,  557, 2455, 2456,  556
 902, 2455,  457,  458, 2456
 903,  556, 2456, 2457,  555
 904, 2456,  458,  459, 2457
 905,  555, 2457, 2458,  554
 906, 2457,  459,  460, 2458
 907,  554, 2458, 2459,  553
 908, 2458,  460,  461, 2459
 909,  553, 2459, 2460,  552
 910, 2459,  461,  462, 2460
 911,  552, 2460, 2461,  551
 912, 2460,  462,  463, 2461
 913,  551, 2461, 2462,  550
 914, 2461,  463,  464, 2462
 915,  550, 2462, 2463,  549
 916, 2462,  464,  465, 2463
 917,  549, 2463, 2464,  548
 918, 2463,  465,  466, 2464
 919,  548, 2464, 2465,  547
 920, 2464,  466,  467, 2465
 921,  547, 2465, 2466,  546
 922, 2465,  467,  468, 2466
 923,  546, 2466, 2467,  545
 924, 2466,  468,  469, 2467
 925,  545, 2467, 2468,  544
 926, 2467,  469,  470, 2468
 927,  544, 2468, 2469,  543
 928, 2468,  470,  471, 2469
 929,  543, 2469, 2470,  542
 930, 2469,  471,  472, 2470
 931,  542, 2470, 2471,  541
 932, 2470,  472,  473, 2471
 933,  541, 2471, 2472,  540
 934, 2471,  473,  474, 2472
 935,  540, 2472, 2473,  539
 936, 2472,  474,  475, 2473
 937,  539, 2473, 2474,  538
 938, 2473,  475,  476, 2474
 939,  538, 2474, 2475,  537
 940, 2474,  476,  477, 2475
 941,  537, 2475, 2476,  536
 942, 2475,  477,  478, 2476
 943,  536, 2476, 2477,  535
 944, 2476,  478,  479, 2477
 945,  535, 2477, 2478,  534
 946, 2477,  479,  480, 2478
 947,  534, 2478, 2479,  533
 948, 2478,  480,  481, 2479
 949,  533, 2479, 2480,  532
 950, 2479,  481,  482, 2480
 951,  532, 2480, 2481,  531
 952, 2480,  482,  483, 2481
 953,  531, 2481, 2482,  530
 954, 2481,  483,  484, 2482
 955,  530, 2482, 2483,  529
 956, 2482,  484,  485, 2483
 957,  529, 2483, 2484,  528
 958, 2483,  485,  486, 2484
 959,  528, 2484, 2485,  527
 960, 2484,  486,  487, 2485
 961,  527, 2485, 2486,  526
 962, 2485,  487,  488, 2486
 963,  526, 2486, 2487,  525
 964, 2486,  488,  489, 2487
 965,  525, 2487, 2488,  524
 966, 2487,  489,  490, 2488
 967,  524, 2488, 2489,  523
 968, 2488,  490,  491, 2489
 969,  523, 2489, 2490,  522
 970, 2489,  491,  492, 2490
 971,  522, 2490, 2491,  521
 972, 2490,  492,  493, 2491
 973,  521, 2491, 2492,  520
 974, 2491,  493,  494, 2492
 975,  520, 2492, 2493,  519
 976, 2492,  494,  495, 2493
 977,  519, 2493, 2494,  518
 978, 2493,  495,  496, 2494
 979,  518, 2494, 2495,  517
 980, 2494,  496,  497, 2495
 981,  517, 2495, 2496,  516
 982, 2495,  497,  498, 2496
 983,  516, 2496, 2497,  515
 984, 2496,  498,  499, 2497
 985,  515, 2497, 2498,  514
 986, 2497,  499,  500, 2498
 987,  514, 2498, 2499,  513
 988, 2498,  500,  501, 2499
 989,  513, 2499, 2500,  512
 990, 2499,  501,  502, 2500
 991,  512, 2500, 2501,  511
 992, 2500,  502,  503, 2501
 993,  511, 2501, 2502,  510
 994, 2501,  503,  504, 2502
 995,  510, 2502, 2503,  509
 996, 2502,  504,  505, 2503
 997,  509, 2503, 2504,  508
 998, 2503,  505,  506, 2504
 999,  508, 2504,  507,    4
1000, 2504,  506,    3,  507
1001,    2,    7, 2505, 2005
1002,    7,    1, 1007, 2505
1003, 2005, 2505, 2506, 2004
1004, 2505, 1007, 1008, 2506
1005, 2004, 2506, 2507, 2003
1006, 2506, 1008, 1009, 2507
1007, 2003, 2507, 2508, 2002
1008, 2507, 1009, 1010, 2508
1009, 2002, 2508, 2509, 2001
1010, 2508, 1010, 1011, 2509
1011, 2001, 2509, 2510, 2000
1012, 2509, 1011, 1012, 2510
1013, 2000, 2510, 2511, 1999
1014, 2510, 1012, 1013, 2511
1015, 1999, 2511, 2512, 1998
1016, 2511, 1013, 1014, 2512
1017, 1998, 2512, 2513, 1997
1018, 2512, 1014, 1015, 2513
1019, 1997, 2513, 2514, 1996
1020, 2513, 1015, 1016, 2514
1021, 1996, 2514, 2515, 1995
1022, 2514, 1016, 1017, 2515
1023, 1995, 2515, 2516, 1994
1024, 2515, 1017, 1018, 2516
1025, 1994, 2516, 2517, 1993
1026, 2516, 1018, 1019, 2517
1027, 1993, 2517, 2518, 1992
1028, 2517, 1019, 1020, 2518
1029, 1992, 2518, 2519, 1991
1030, 2518, 1020, 1021, 2519
1031, 1991, 2519, 2520, 1990
1032, 2519, 1021, 1022, 2520
1033, 1990, 2520, 2521, 1989
1034, 2520, 1022, 1023, 2521
1035, 1989, 2521, 2522, 1988
1036, 2521, 1023, 1024, 2522
1037, 1988, 2522, 2523, 1987
1038, 2522, 1024, 1025, 2523
1039, 1987, 2523, 2524, 1986
1040, 2523, 1025, 1026, 2524
1041, 1986, 2524, 2525, 1985
1042, 2524, 1026, 1027, 2525
1043, 1985, 2525, 2526, 1984
1044, 2525, 1027, 1028, 2526
1045, 1984, 2526, 2527, 1983
1046, 2526, 1028, 1029, 2527
1047, 1983, 2527, 2528, 1982
1048, 2527, 1029, 1030, 2528
1049, 1982, 2528, 2529, 1981
1050, 2528, 1030, 1031, 2529
1051, 1981, 2529, 2530, 1980
1052, 2529, 1031, 1032, 2530
1053, 1980, 2530, 2531, 1979
1054, 2530, 1032, 1033, 2531
1055, 1979, 2531, 2532, 1978
1056, 2531, 1033, 1034, 2532
1057, 1978, 2532, 2533, 1977
1058, 2532, 1034, 1035, 2533
1059, 1977, 2533, 2534, 1976
1060, 2533, 1035, 1036, 2534
1061, 1976, 2534, 2535, 1975
1062, 2534, 1036, 1037, 2535
1063, 1975, 2535, 2536, 1974
1064, 2535, 1037, 1038, 2536
1065, 1974, 2536, 2537, 1973
1066, 2536, 1038, 1039, 2537
1067, 1973, 2537, 2538, 1972
1068, 2537, 1039, 1040, 2538
1069, 1972, 2538, 2539, 1971
1070, 2538, 1040, 1041, 2539
1071, 1971, 2539, 2540, 1970
1072, 2539, 1041, 1042, 2540
1073, 1970, 2540, 2541, 1969
1074, 2540, 1042, 1043, 2541
1075, 1969, 2541, 2542, 1968
1076, 2541, 1043, 1044, 2542
1077, 1968, 2542, 2543, 1967
1078, 2542, 1044, 1045, 2543
1079, 1967, 2543, 2544, 1966
1080, 2543, 1045, 1046, 2544
1081, 1966, 2544, 2545, 1965
1082, 2544, 1046, 1047, 2545
1083, 1965, 2545, 2546, 1964
1084, 2545, 1047, 1048, 2546
1085, 1964, 2546, 2547, 1963
1086, 2546, 1048, 1049, 2547
1087, 1963, 2547, 2548, 1962
1088, 2547, 1049, 1050, 2548
1089, 1962, 2548, 2549, 1961
1090, 2548, 1050, 1051, 2549
1091, 1961, 2549, 2550, 1960
1092, 2549, 1051, 1052, 2550
1093, 1960, 2550, 2551, 1959
1094, 2550, 1052, 1053, 2551
1095, 1959, 2551, 2552, 1958
1096, 2551, 1053, 1054, 2552
1097, 1958, 2552, 2553, 1957
1098, 2552, 1054, 1055, 2553
1099, 1957, 2553, 2554, 1956
1100, 2553, 1055, 1056, 2554
1101, 1956, 2554, 2555, 1955
1102, 2554, 1056, 1057, 2555
1103, 1955, 2555, 2556, 1954
1104, 2555, 1057, 1058, 2556
1105, 1954, 2556, 2557, 1953
1106, 2556, 1058, 1059, 2557
1107, 1953, 2557, 2558, 1952
1108, 2557, 1059, 1060, 2558
1109, 1952, 2558, 2559, 1951
1110, 2558, 1060, 1061, 2559
1111, 1951, 2559, 2560, 1950
1112, 2559, 1061, 1062, 2560
1113, 1950, 2560, 2561, 1949
1114, 2560, 1062, 1063, 2561
1115, 1949, 2561, 2562, 1948
1116, 2561, 1063, 1064, 2562
1117, 1948, 2562, 2563, 1947
1118, 2562, 1064, 1065, 2563
1119, 1947, 2563, 2564, 1946
1120, 2563, 1065, 1066, 2564
1121, 1946, 2564, 2565, 1945
1122, 2564, 1066, 1067, 2565
1123, 1945, 2565, 2566, 1944
1124, 2565, 1067, 1068, 2566
1125, 1944, 2566, 2567, 1943
1126, 2566, 1068, 1069, 2567
1127, 1943, 2567, 2568, 1942
1128, 2567, 1069, 1070, 2568
1129, 1942, 2568, 2569, 1941
1130, 2568, 1070, 1071, 2569
1131, 1941, 2569, 2570, 1940
1132, 2569, 1071, 1072, 2570
1133, 1940, 2570, 2571, 1939
1134, 2570, 1072, 1073, 2571
1135, 1939, 2571, 2572, 1938
1136, 2571, 1073, 1074, 2572
1137, 1938, 2572, 2573, 1937
1138, 2572, 1074, 1075, 2573
1139, 1937, 2573, 2574, 1936
1140, 2573, 1075, 1076, 2574
1141, 1936, 2574, 2575, 1935
1142, 2574, 1076, 1077, 2575
1143, 1935, 2575, 2576, 1934
1144, 2575, 1077, 1078, 2576
1145, 1934, 2576, 2577, 1933
1146, 2576, 1078, 1079, 2577
1147, 1933, 2577, 2578, 1932
1148, 2577, 1079, 1080, 2578
1149, 1932, 2578, 2579, 1931
1150, 2578, 1080, 1081, 2579
1151, 1931, 2579, 2580, 1930
1152, 2579, 1081, 1082, 2580
1153, 1930, 2580, 2581, 1929
1154, 2580, 1082, 1083, 2581
1155, 1929, 2581, 2582, 1928
1156, 2581, 1083, 1084, 2582
1157, 1928, 2582, 2583, 1927
1158, 2582, 1084, 1085, 2583
1159, 1927, 2583, 2584, 1926
1160, 2583, 1085, 1086, 2584
1161, 1926, 2584, 2585, 1925
1162, 2584, 1086, 1087, 2585
1163, 1925, 2585, 2586, 1924
1164, 2585, 1087, 1088, 2586
1165, 1924, 2586, 2587, 1923
1166, 2586, 1088, 1089, 2587
1167, 1923, 2587, 2588, 1922
1168, 2587, 1089, 1090, 2588
1169, 1922, 2588, 2589, 1921
1170, 2588, 1090, 1091, 2589
1171, 1921, 2589, 2590, 1920
1172, 2589, 1091, 1092, 2590
1173, 1920, 2590, 2591, 1919
1174, 2590, 1092, 1093, 2591
1175, 1919, 2591, 2592, 1918
1176, 2591, 1093, 1094, 2592
1177, 1918, 2592, 2593, 1917
1178, 2592, 1094, 1095, 2593
1179, 1917, 2593, 2594, 1916
1180, 2593, 1095, 1096, 2594
1181, 1916, 2594, 2595, 1915
1182, 2594, 1096, 1097, 2595
1183, 1915, 2595, 2596, 1914
1184, 2595, 1097, 1098, 2596
1185, 1914, 2596, 2597, 1913
1186, 2596, 1098, 1099, 2597
1187, 1913, 2597, 2598, 1912
1188, 2597, 1099, 1100, 2598
1189, 1912, 2598, 2599, 1911
1190, 2598, 1100, 1101, 2599
1191, 1911, 2599, 2600, 1910
1192, 2599, 1101, 1102, 2600
1193, 1910, 2600, 2601, 1909
1194, 2600, 1102, 1103, 2601
1195, 1909, 2601, 2602, 1908
1196, 2601, 1103, 1104, 2602
1197, 1908, 2602, 2603, 1907
1198, 2602, 1104, 1105, 2603
1199, 1907, 2603, 2604, 1906
1200, 2603, 1105, 1106, 2604
1201, 1906, 2604, 2605, 1905
1202, 2604, 1106, 1107, 2605
1203, 1905, 2605, 2606, 1904
1204, 2605, 1107, 1108, 2606
1205, 1904, 2606, 2607, 1903
1206, 2606, 1108, 1109, 2607
1207, 1903, 2607, 2608, 1902
1208, 2607, 1109, 1110, 2608
1209, 1902, 2608, 2609, 1901
1210, 2608, 1110, 1111, 2609
1211, 1901, 2609, 2610, 1900
1212, 2609, 1111, 1112, 2610
1213, 1900, 2610, 2611, 1899
1214, 2610, 1112, 1113, 2611
1215, 1899, 2611, 2612, 1898
1216, 2611, 1113, 1114, 2612
1217, 1898, 2612, 2613, 1897
1218, 2612, 1114, 1115, 2613
1219, 1897, 2613, 2614, 1896
1220, 2613, 1115, 1116, 2614
1221, 1896, 2614, 2615, 1895
1222, 2614, 1116, 1117, 2615
1223, 1895, 2615, 2616, 1894
1224, 2615, 1117, 1118, 2616
1225, 1894, 2616, 2617, 1893
1226, 2616, 1118, 1119, 2617
1227, 1893, 2617, 2618, 1892
1228, 2617, 1119, 1120, 2618
1229, 1892, 2618, 2619, 1891
1230, 2618, 1120, 1121, 2619
1231, 1891, 2619, 2620, 1890
1232, 2619, 1121, 1122, 2620
1233, 1890, 2620, 2621, 1889
1234, 2620, 1122, 1123, 2621
1235, 1889, 2621, 2622, 1888
1236, 2621, 1123, 1124, 2622
1237, 1888, 2622, 2623, 1887
1238, 2622, 1124, 1125, 2623
1239, 1887, 2623, 2624, 1886
1240, 2623, 1125, 1126, 2624
1241, 1886, 2624, 2625, 1885
1242, 2624, 1126, 1127, 2625
1243, 1885, 2625, 2626, 1884
1244, 2625, 1127, 1128, 2626
1245, 1884, 2626, 2627, 1883
1246, 2626, 1128, 1129, 2627
1247, 1883, 2627, 2628, 1882
1248, 2627, 1129, 1130, 2628
1249, 1882, 2628, 2629, 1881
1250, 2628, 1130, 1131, 2629
1251, 1881, 2629, 2630, 1880
1252, 2629, 1131, 1132, 2630
1253, 1880, 2630, 2631, 1879
1254, 2630, 1132, 1133, 2631
1255, 1879, 2631, 2632, 1878
1256, 2631, 1133, 1134, 2632
1257, 1878, 2632, 2633, 1877
1258, 2632, 1134, 1135, 2633
1259, 1877, 2633, 2634, 1876
1260, 2633, 1135, 1136, 2634
1261, 1876, 2634, 2635, 1875
1262, 2634, 1136, 1137, 2635
1263, 1875, 2635, 2636, 1874
1264, 2635, 1137, 1138, 2636
1265, 1874, 2636, 2637, 1873
1266, 2636, 1138, 1139, 2637
1267, 1873, 2637, 2638, 1872
1268, 2637, 1139, 1140, 2638
1269, 1872, 2638, 2639, 1871
1270, 2638, 1140, 1141, 2639
1271, 1871, 2639, 2640, 1870
1272, 2639, 1141, 1142, 2640
1273, 1870, 2640, 2641, 1869
1274, 2640, 1142, 1143, 2641
1275, 1869, 2641, 2642, 1868
1276, 2641, 1143, 1144, 2642
1277, 1868, 2642, 2643, 1867
1278, 2642, 1144, 1145, 2643
1279, 1867, 2643, 2644, 1866
1280, 2643, 1145, 1146, 2644
1281, 1866, 2644, 2645, 1865
1282, 2644, 1146, 1147, 2645
1283, 1865, 2645, 2646, 1864
1284, 2645, 1147, 1148, 2646
1285, 1864, 2646, 2647, 1863
1286, 2646, 1148, 1149, 2647
1287, 1863, 2647, 2648, 1862
1288, 2647, 1149, 1150, 2648
1289, 1862, 2648, 2649, 1861
1290, 2648, 1150, 1151, 2649
1291, 1861, 2649, 2650, 1860
1292, 2649, 1151, 1152, 2650
1293, 1860, 2650, 2651, 1859
1294, 2650, 1152, 1153, 2651
1295, 1859, 2651, 2652, 1858
1296, 2651, 1153, 1154, 2652
1297, 1858, 2652, 2653, 1857
1298, 2652, 1154, 1155, 2653
1299, 1857, 2653, 2654, 1856
1300, 2653, 1155, 1156, 2654
1301, 1856, 2654, 2655, 1855
1302, 2654, 1156, 1157, 2655
1303, 1855, 2655, 2656, 1854
1304, 2655, 1157, 1158, 2656
1305, 1854, 2656, 2657, 1853
1306, 2656, 1158, 1159, 2657
1307, 1853, 2657, 2658, 1852
1308, 2657, 1159, 1160, 2658
1309, 1852, 2658, 2659, 1851
1310, 2658, 1160, 1161, 2659
1311, 1851, 2659, 2660, 1850
1312, 2659, 1161, 1162, 2660
1313, 1850, 2660, 2661, 1849
1314, 2660, 1162, 1163, 2661
1315, 1849, 2661, 2662, 1848
1316, 2661, 1163, 1164, 2662
1317, 1848, 2662, 2663, 1847
1318, 2662, 1164, 1165, 2663
1319, 1847, 2663, 2664, 1846
1320, 2663, 1165, 1166, 2664
1321, 1846, 2664, 2665, 1845
1322, 2664, 1166, 1167, 2665
1323, 1845, 2665, 2666, 1844
1324, 2665, 1167, 1168, 2666
1325, 1844, 2666, 2667, 1843
1326, 2666, 1168, 1169, 2667
1327, 1843, 2667, 2668, 1842
1328, 2667, 1169, 1170, 2668
1329, 1842, 2668, 2669, 1841
1330, 2668, 1170, 1171, 2669
1331, 1841, 2669, 2670, 1840
1332, 2669, 1171, 1172, 2670
1333, 1840, 2670, 2671, 1839
1334, 2670, 1172, 1173, 2671
1335, 1839, 2671, 2672, 1838
1336, 2671, 1173, 1174, 2672
1337, 1838, 2672, 2673, 1837
1338, 2672, 1174, 1175, 2673
1339, 1837, 2673, 2674, 1836
1340, 2673, 1175, 1176, 2674
1341, 1836, 2674, 2675, 1835
1342, 2674, 1176, 1177, 2675
1343, 1835, 2675, 2676, 1834
1344, 2675, 1177, 1178, 2676
1345, 1834, 2676, 2677, 1833
1346, 2676, 1178, 1179, 2677
1347, 1833, 2677, 2678, 1832
1348, 2677, 1179, 1180, 2678
1349, 1832, 2678, 2679, 1831
1350, 2678, 1180, 1181, 2679
1351, 1831, 2679, 2680, 1830
1352, 2679, 1181, 1182, 2680
1353, 1830, 2680, 2681, 1829
1354, 2680, 1182, 1183, 2681
1355, 1829, 2681, 2682, 1828
1356, 2681, 1183, 1184, 2682
1357, 1828, 2682, 2683, 1827
1358, 2682, 1184, 1185, 2683
1359, 1827, 2683, 2684, 1826
1360, 2683, 1185, 1186, 2684
1361, 1826, 2684, 2685, 1825
1362, 2684, 1186, 1187, 2685
1363, 1825, 2685, 2686, 1824
1364, 2685, 1187, 1188, 2686
1365, 1824, 2686, 2687, 1823
1366, 2686, 1188, 1189, 2687
1367, 1823, 2687, 2688, 1822
1368, 2687, 1189, 1190, 2688
1369, 1822, 2688, 2689, 1821
1370, 2688, 1190, 1191, 2689
1371, 1821, 2689, 2690, 1820
1372, 2689, 1191, 1192, 2690
1373, 1820, 2690, 2691, 1819
1374, 2690, 1192, 1193, 2691
1375, 1819, 2691, 2692, 1818
1376, 2691, 1193, 1194, 2692
1377, 1818, 2692, 2693, 1817
1378, 2692, 1194, 1195, 2693
1379, 1817, 2693, 2694, 1816
1380, 2693, 1195, 1196, 2694
1381, 1816, 2694, 2695, 1815
1382, 2694, 1196, 1197, 2695
1383, 1815, 2695, 2696, 1814
1384, 2695, 1197, 1198, 2696
1385, 1814, 2696, 2697, 1813
1386, 2696, 1198, 1199, 2697
1387, 1813, 2697, 2698, 1812
1388, 2697, 1199, 1200, 2698
1389, 1812, 2698, 2699, 1811
1390, 2698, 1200, 1201, 2699
1391, 1811, 2699, 2700, 1810
1392, 2699, 1201, 1202, 2700
1393, 1810, 2700, 2701, 1809
1394, 2700, 1202, 1203, 2701
1395, 1809, 2701, 2702, 1808
1396, 2701, 1203, 1204, 2702
1397, 1808, 2702, 2703, 1807
1398, 2702, 1204, 1205, 2703
1399, 1807, 2703, 2704, 1806
1400, 2703, 1205, 1206, 2704
1401, 1806, 2704, 2705, 1805
1402, 2704, 1206, 1207, 2705
1403, 1805, 2705, 2706, 1804
1404, 2705, 1207, 1208, 2706
1405, 1804, 2706, 2707, 1803
1406, 2706, 1208, 1209, 2707
1407, 1803, 2707, 2708, 1802
1408, 2707, 1209, 1210, 2708
1409, 1802, 2708, 2709, 1801
1410, 2708, 1210, 1211, 2709
1411, 1801, 2709, 2710, 1800
1412, 2709, 1211, 1212, 2710
1413, 1800, 2710, 2711, 1799
1414, 2710, 1212, 1213, 2711
1415, 1799, 2711, 2712, 1798
1416, 2711, 1213, 1214, 2712
1417, 1798, 2712, 2713, 1797
1418, 2712, 1214, 1215, 2713
1419, 1797, 2713, 2714, 1796
1420, 2713, 1215, 1216, 2714
1421, 1796, 2714, 2715, 1795
1422, 2714, 1216, 1217, 2715
1423, 1795, 2715, 2716, 1794
1424, 2715, 1217, 1218, 2716
1425, 1794, 2716, 2717, 1793
1426, 2716, 1218, 1219, 2717
1427, 1793, 2717, 2718, 1792
1428, 2717, 1219, 1220, 2718
1429, 1792, 2718, 2719, 1791
1430, 2718, 1220, 1221, 2719
1431, 1791, 2719, 2720, 1790
1432, 2719, 1221, 1222, 2720
1433, 1790, 2720, 2721, 1789
1434, 2720, 1222, 1223, 2721
1435, 1789, 2721, 2722, 1788
1436, 2721, 1223, 1224, 2722
1437, 1788, 2722, 2723, 1787
1438, 2722, 1224, 1225, 2723
1439, 1787, 2723, 2724, 1786
1440, 2723, 1225, 1226, 2724
1441, 1786, 2724, 2725, 1785
1442, 2724, 1226, 1227, 2725
1443, 1785, 2725, 2726, 1784
1444, 2725, 1227, 1228, 2726
1445, 1784, 2726, 2727, 1783
1446, 2726, 1228, 1229, 2727
1447, 1783, 2727, 2728, 1782
1448, 2727, 1229, 1230, 2728
1449, 1782, 2728, 2729, 1781
1450, 2728, 1230, 1231, 2729
1451, 1781, 2729, 2730, 1780
1452, 2729, 1231, 1232, 2730
1453, 1780, 2730, 2731, 1779
1454, 2730, 1232, 1233, 2731
1455, 1779, 2731, 2732, 1778
1456, 2731, 1233, 1234, 2732
1457, 1778, 2732, 2733, 1777
1458, 2732, 1234, 1235, 2733
1459, 1777, 2733, 2734, 1776
1460, 2733, 1235, 1236, 2734
1461, 1776, 2734, 2735, 1775
1462, 2734, 1236, 1237, 2735
1463, 1775, 2735, 2736, 1774
1464, 2735, 1237, 1238, 2736
1465, 1774, 2736, 2737, 1773
1466, 2736, 1238, 1239, 2737
1467, 1773, 2737, 2738, 1772
1468, 2737, 1239, 1240, 2738
1469, 1772, 2738, 2739, 1771
1470, 2738, 1240, 1241, 2739
1471, 1771, 2739, 2740, 1770
1472, 2739, 1241, 1242, 2740
1473, 1770, 2740, 2741, 1769
1474, 2740, 1242, 1243, 2741
1475, 1769, 2741, 2742, 1768
1476, 2741, 1243, 1244, 2742
1477, 1768, 2742, 2743, 1767
1478, 2742, 1244, 1245, 2743
1479, 1767, 2743, 2744, 1766
1480, 2743, 1245, 1246, 2744
1481, 1766, 2744, 2745, 1765
1482, 2744, 1246, 1247, 2745
1483, 1765, 2745, 2746, 1764
1484, 2745, 1247, 1248, 2746
1485, 1764, 2746, 2747, 1763
1486, 2746, 1248, 1249, 2747
1487, 1763, 2747, 2748, 1762
1488, 2747, 1249, 1250, 2748
1489, 1762, 2748, 2749, 1761
1490, 2748, 1250, 1251, 2749
1491, 1761, 2749, 2750, 1760
1492, 2749, 1251, 1252, 2750
1493, 1760, 2750, 2751, 1759
1494, 2750, 1252, 1253, 2751
1495, 1759, 2751, 2752, 1758
1496, 2751, 1253, 1254, 2752
1497, 1758, 2752, 2753, 1757
1498, 2752, 1254, 1255, 2753
1499, 1757, 2753, 2754, 1756
1500, 2753, 1255, 1256, 2754
1501, 1756, 2754, 2755, 1755
1502, 2754, 1256, 1257, 2755
1503, 1755, 2755, 2756, 1754
1504, 2755, 1257, 1258, 2756
1505, 1754, 2756, 2757, 1753
1506, 2756, 1258, 1259, 2757
1507, 1753, 2757, 2758, 1752
1508, 2757, 1259, 1260, 2758
1509, 1752, 2758, 2759, 1751
1510, 2758, 1260, 1261, 2759
1511, 1751, 2759, 2760, 1750
1512, 2759, 1261, 1262, 2760
1513, 1750, 2760, 2761, 1749
1514, 2760, 1262, 1263, 2761
1515, 1749, 2761, 2762, 1748
1516, 2761, 1263, 1264, 2762
1517, 1748, 2762, 2763, 1747
1518, 2762, 1264, 1265, 2763
1519, 1747, 2763, 2764, 1746
1520, 2763, 1265, 1266, 2764
1521, 1746, 2764, 2765, 1745
1522, 2764, 1266, 1267, 2765
1523, 1745, 2765, 2766, 1744
1524, 2765, 1267, 1268, 2766
1525, 1744, 2766, 2767, 1743
1526, 2766, 1268, 1269, 2767
1527, 1743, 2767, 2768, 1742
1528, 2767, 1269, 1270, 2768
1529, 1742, 2768, 2769, 1741
1530, 2768, 1270, 1271, 2769
1531, 1741, 2769, 2770, 1740
1532, 2769, 1271, 1272, 2770
1533, 1740, 2770, 2771, 1739
1534, 2770, 1272, 1273, 2771
1535, 1739, 2771, 2772, 1738
1536, 2771, 1273, 1274, 2772
1537, 1738, 2772, 2773, 1737
1538, 2772, 1274, 1275, 2773
1539, 1737, 2773, 2774, 1736
1540, 2773, 1275, 1276, 2774
1541, 1736, 2774, 2775, 1735
1542, 2774, 1276, 1277, 2775
1543, 1735, 2775, 2776, 1734
1544, 2775, 1277, 1278, 2776
1545, 1734, 2776, 2777, 1733
1546, 2776, 1278, 1279, 2777
1547, 1733, 2777, 2778, 1732
1548, 2777, 1279, 1280, 2778
1549, 1732, 2778, 2779, 1731
1550, 2778, 1280, 1281, 2779
1551, 1731, 2779, 2780, 1730
1552, 2779, 1281, 1282, 2780
1553, 1730, 2780, 2781, 1729
1554, 2780, 1282, 1283, 2781
1555, 1729, 2781, 2782, 1728
1556, 2781, 1283, 1284, 2782
1557, 1728, 2782, 2783, 1727
1558, 2782, 1284, 1285, 2783
1559, 1727, 2783, 2784, 1726
1560, 2783, 1285, 1286, 2784
1561, 1726, 2784, 2785, 1725
1562, 2784, 1286, 1287, 2785
1563, 1725, 2785, 2786, 1724
1564, 2785, 1287, 1288, 2786
1565, 1724, 2786, 2787, 1723
1566, 2786, 1288, 1289, 2787
1567, 1723, 2787, 2788, 1722
1568, 2787, 1289, 1290, 2788
1569, 1722, 2788, 2789, 1721
1570, 2788, 1290, 1291, 2789
1571, 1721, 2789, 2790, 1720
1572, 2789, 1291, 1292, 2790
1573, 1720, 2790, 2791, 1719
1574, 2790, 1292, 1293, 2791
1575, 1719, 2791, 2792, 1718
1576, 2791, 1293, 1294, 2792
1577, 1718, 2792, 2793, 1717
1578, 2792, 1294, 1295, 2793
1579, 1717, 2793, 2794, 1716
1580, 2793, 1295, 1296, 2794
1581, 1716, 2794, 2795, 1715
1582, 2794, 1296, 1297, 2795
1583, 1715, 2795, 2796, 1714
1584, 2795, 1297, 1298, 2796
1585, 1714, 2796, 2797, 1713
1586, 2796, 1298, 1299, 2797
1587, 1713, 2797, 2798, 1712
1588, 2797, 1299, 1300, 2798
1589, 1712, 2798, 2799, 1711
1590, 2798, 1300, 1301, 2799
1591, 1711, 2799, 2800, 1710
1592, 2799, 1301, 1302, 2800
1593, 1710, 2800, 2801, 1709
1594, 2800, 1302, 1303, 2801
1595, 1709, 2801, 2802, 1708
1596, 2801, 1303, 1304, 2802
1597, 1708, 2802, 2803, 1707
1598, 2802, 1304, 1305, 2803
1599, 1707, 2803, 2804, 1706
1600, 2803, 1305, 1306, 2804
1601, 1706, 2804, 2805, 1705
1602, 2804, 1306, 1307, 2805
1603, 1705, 2805, 2806, 1704
1604, 2805, 1307, 1308, 2806
1605, 1704, 2806, 2807, 1703
1606, 2806, 1308, 1309, 2807
1607, 1703, 2807, 2808, 1702
1608, 2807, 1309, 1310, 2808
1609, 1702, 2808, 2809, 1701
1610, 2808, 1310, 1311, 2809
1611, 1701, 2809, 2810, 1700
1612, 2809, 1311, 1312, 2810
1613, 1700, 2810, 2811, 1699
1614, 2810, 1312, 1313, 2811
1615, 1699, 2811, 2812, 1698
1616, 2811, 1313, 1314, 2812
1617, 1698, 2812, 2813, 1697
1618, 2812, 1314, 1315, 2813
1619, 1697, 2813, 2814, 1696
1620, 2813, 1315, 1316, 2814
1621, 1696, 2814, 2815, 1695
1622, 2814, 1316, 1317, 2815
1623, 1695, 2815, 2816, 1694
1624, 2815, 1317, 1318, 2816
1625, 1694, 2816, 2817, 1693
1626, 2816, 1318, 1319, 2817
1627, 1693, 2817, 2818, 1692
1628, 2817, 1319, 1320, 2818
1629, 1692, 2818, 2819, 1691
1630, 2818, 1320, 1321, 2819
1631, 1691, 2819, 2820, 1690
1632, 2819, 1321, 1322, 2820
1633, 1690, 2820, 2821, 1689
1634, 2820, 1322, 1323, 2821
1635, 1689, 2821, 2822, 1688
1636, 2821, 1323, 1324, 2822
1637, 1688, 2822, 2823, 1687
1638, 2822, 1324, 1325, 2823
1639, 1687, 2823, 2824, 1686
1640, 2823, 1325, 1326, 2824
1641, 1686, 2824, 2825, 1685
1642, 2824, 1326, 1327, 2825
1643, 1685, 2825, 2826, 1684
1644, 2825, 1327, 1328, 2826
1645, 1684, 2826, 2827, 1683
1646, 2826, 1328, 1329, 2827
1647, 1683, 2827, 2828, 1682
1648, 2827, 1329, 1330, 2828
1649, 1682, 2828, 2829, 1681
1650, 2828, 1330, 1331, 2829
1651, 1681, 2829, 2830, 1680
1652, 2829, 1331, 1332, 2830
1653, 1680, 2830, 2831, 1679
1654, 2830, 1332, 1333, 2831
1655, 1679, 2831, 2832, 1678
1656, 2831, 1333, 1334, 2832
1657, 1678, 2832, 2833, 1677
1658, 2832, 1334, 1335, 2833
1659, 1677, 2833, 2834, 1676
1660, 2833, 1335, 1336, 2834
1661, 1676, 2834, 2835, 1675
1662, 2834, 1336, 1337, 2835
1663, 1675, 2835, 2836, 1674
1664, 2835, 1337, 1338, 2836
1665, 1674, 2836, 2837, 1673
1666, 2836, 1338, 1339, 2837
1667, 1673, 2837, 2838, 1672
1668, 2837, 1339, 1340, 2838
1669, 1672, 2838, 2839, 1671
1670, 2838, 1340, 1341, 2839
1671, 1671, 2839, 2840, 1670
1672, 2839, 1341, 1342, 2840
1673, 1670, 2840, 2841, 1669
1674, 2840, 1342, 1343, 2841
1675, 1669, 2841, 2842, 1668
1676, 2841, 1343, 1344, 2842
1677, 1668, 2842, 2843, 1667
1678, 2842, 1344, 1345, 2843
1679, 1667, 2843, 2844, 1666
1680, 2843, 1345, 1346, 2844
1681, 1666, 2844, 2845, 1665
1682, 2844, 1346, 1347, 2845
1683, 1665, 2845, 2846, 1664
1684, 2845, 1347, 1348, 2846
1685, 1664, 2846, 2847, 1663
1686, 2846, 1348, 1349, 2847
1687, 1663, 2847, 2848, 1662
1688, 2847, 1349, 1350, 2848
1689, 1662, 2848, 2849, 1661
1690, 2848, 1350, 1351, 2849
1691, 1661, 2849, 2850, 1660
1692, 2849, 1351, 1352, 2850
1693, 1660, 2850, 2851, 1659
1694, 2850, 1352, 1353, 2851
1695, 1659, 2851, 2852, 1658
1696, 2851, 1353, 1354, 2852
1697, 1658, 2852, 2853, 1657
1698, 2852, 1354, 1355, 2853
1699, 1657, 2853, 2854, 1656
1700, 2853, 1355, 1356, 2854
1701, 1656, 2854, 2855, 1655
1702, 2854, 1356, 1357, 2855
1703, 1655, 2855, 2856, 1654
1704, 2855, 1357, 1358, 2856
1705, 1654, 2856, 2857, 1653
1706, 2856, 1358, 1359, 2857
1707, 1653, 2857, 2858, 1652
1708, 2857, 1359, 1360, 2858
1709, 1652, 2858, 2859, 1651
1710, 2858, 1360, 1361, 2859
1711, 1651, 2859, 2860, 1650
1712, 2859, 1361, 1362, 2860
1713, 1650, 2860, 2861, 1649
1714, 2860, 1362, 1363, 2861
1715, 1649, 2861, 2862, 1648
1716, 2861, 1363, 1364, 2862
1717, 1648, 2862, 2863, 1647
1718, 2862, 1364, 1365, 2863
1719, 1647, 2863, 2864, 1646
1720, 2863, 1365, 1366, 2864
1721, 1646, 2864, 2865, 1645
1722, 2864, 1366, 1367, 2865
1723, 1645, 2865, 2866, 1644
1724, 2865, 1367, 1368, 2866
1725, 1644, 2866, 2867, 1643
1726, 2866, 1368, 1369, 2867
1727, 1643, 2867, 2868, 1642
1728, 2867, 1369, 1370, 2868
1729, 1642, 2868, 2869, 1641
1730, 2868, 1370, 1371, 2869
1731, 1641, 2869, 2870, 1640
1732, 2869, 1371, 1372, 2870
1733, 1640, 2870, 2871, 1639
1734, 2870, 1372, 1373, 2871
1735, 1639, 2871, 2872, 1638
1736, 2871, 1373, 1374, 2872
1737, 1638, 2872, 2873, 1637
1738, 2872, 1374, 1375, 2873
1739, 1637, 2873, 2874, 1636
1740, 2873, 1375, 1376, 2874
1741, 1636, 2874, 2875, 1635
1742, 2874, 1376, 1377, 2875
1743, 1635, 2875, 2876, 1634
1744, 2875, 1377, 1378, 2876
1745, 1634, 2876, 2877, 1633
1746, 2876, 1378, 1379, 2877
1747, 1633, 2877, 2878, 1632
1748, 2877, 1379, 1380, 2878
1749, 1632, 2878, 2879, 1631
1750, 2878, 1380, 1381, 2879
1751, 1631, 2879, 2880, 1630
1752, 2879, 1381, 1382, 2880
1753, 1630, 2880, 2881, 1629
1754, 2880, 1382, 1383, 2881
1755, 1629, 2881, 2882, 1628
1756, 2881, 1383, 1384, 2882
1757, 1628, 2882, 2883, 1627
1758, 2882, 1384, 1385, 2883
1759, 1627, 2883, 2884, 1626
1760, 2883, 1385, 1386, 2884
1761, 1626, 2884, 2885, 1625
1762, 2884, 1386, 1387, 2885
1763, 1625, 2885, 2886, 1624
1764, 2885, 1387, 1388, 2886
1765, 1624, 2886, 2887, 1623
1766, 2886, 1388, 1389, 2887
1767, 1623, 2887, 2888, 1622
1768, 2887, 1389, 1390, 2888
1769, 1622, 2888, 2889, 1621
1770, 2888, 1390, 1391, 2889
1771, 1621, 2889, 2890, 1620
1772, 2889, 1391, 1392, 2890
1773, 1620, 2890, 2891, 1619
1774, 2890, 1392, 1393, 2891
1775, 1619, 2891, 2892, 1618
1776, 2891, 1393, 1394, 2892
1777, 1618, 2892, 2893, 1617
1778, 2892, 1394, 1395, 2893
1779, 1617, 2893, 2894, 1616
1780, 2893, 1395, 1396, 2894
1781, 1616, 2894, 2895, 1615
1782, 2894, 1396, 1397, 2895
1783, 1615, 2895, 2896, 1614
1784, 2895, 1397, 1398, 2896
1785, 1614, 2896, 2897, 1613
1786, 2896, 1398, 1399, 2897
1787, 1613, 2897, 2898, 1612
1788, 2897, 1399, 1400, 2898
1789, 1612, 2898, 2899, 1611
1790, 2898, 1400, 1401, 2899
1791, 1611, 2899, 2900, 1610
1792, 2899, 1401, 1402, 2900
1793, 1610, 2900, 2901, 1609
1794, 2900, 1402, 1403, 2901
1795, 1609, 2901, 2902, 1608
1796, 2901, 1403, 1404, 2902
1797, 1608, 2902, 2903, 1607
1798, 2902, 1404, 1405, 2903
1799, 1607, 2903, 2904, 1606
1800, 2903, 1405, 1406, 2904
1801, 1606, 2904, 2905, 1605
1802, 2904, 1406, 1407, 2905
1803, 1605, 2905, 2906, 1604
1804, 2905, 1407, 1408, 2906
1805, 1604, 2906, 2907, 1603
1806, 2906, 1408, 1409, 2907
1807, 1603, 2907, 2908, 1602
1808, 2907, 1409, 1410, 2908
1809, 1602, 2908, 2909, 1601
1810, 2908, 1410, 1411, 2909
1811, 1601, 2909, 2910, 1600
1812, 2909, 1411, 1412, 2910
1813, 1600, 2910, 2911, 1599
1814, 2910, 1412, 1413, 2911
1815, 1599, 2911, 2912, 1598
1816, 2911, 1413, 1414, 2912
1817, 1598, 2912, 2913, 1597
1818, 2912, 1414, 1415, 2913
1819, 1597, 2913, 2914, 1596
1820, 2913, 1415, 1416, 2914
1821, 1596, 2914, 2915, 1595
1822, 2914, 1416, 1417, 2915
1823, 1595, 2915, 2916, 1594
1824, 2915, 1417, 1418, 2916
1825, 1594, 2916, 2917, 1593
1826, 2916, 1418, 1419, 2917
1827, 1593, 2917, 2918, 1592
1828, 2917, 1419, 1420, 2918
1829, 1592, 2918, 2919, 1591
1830, 2918, 1420, 1421, 2919
1831, 1591, 2919, 2920, 1590
1832, 2919, 1421, 1422, 2920
1833, 1590, 2920, 2921, 1589
1834, 2920, 1422, 1423, 2921
1835, 1589, 2921, 2922, 1588
1836, 2921, 1423, 1424, 2922
1837, 1588, 2922, 2923, 1587
1838, 2922, 1424, 1425, 2923
1839, 1587, 2923, 2924, 1586
1840, 2923, 1425, 1426, 2924
1841, 1586, 2924, 2925, 1585
1842, 2924, 1426, 1427, 2925
1843, 1585, 2925, 2926, 1584
1844, 2925, 1427, 1428, 2926
1845, 1584, 2926, 2927, 1583
1846, 2926, 1428, 1429, 2927
1847, 1583, 2927, 2928, 1582
1848, 2927, 1429, 1430, 2928
1849, 1582, 2928, 2929, 1581
1850, 2928, 1430, 1431, 2929
1851, 1581, 2929, 2930, 1580
1852, 2929, 1431, 1432, 2930
1853, 1580, 2930, 2931, 1579
1854, 2930, 1432, 1433, 2931
1855, 1579, 2931, 2932, 1578
1856, 2931, 1433, 1434, 2932
1857, 1578, 2932, 2933, 1577
1858, 2932, 1434, 1435, 2933
1859, 1577, 2933, 2934, 1576
1860, 2933, 1435, 1436, 2934
1861, 1576, 2934, 2935, 1575
1862, 2934, 1436, 1437, 2935
1863, 1575, 2935, 2936, 1574
1864, 2935, 1437, 1438, 2936
1865, 1574, 2936, 2937, 1573
1866, 2936, 1438, 1439, 2937
1867, 1573, 2937, 2938, 1572
1868, 2937, 1439, 1440, 2938
1869, 1572, 2938, 2939, 1571
1870, 2938, 1440, 1441, 2939
1871, 1571, 2939, 2940, 1570
1872, 2939, 1441, 1442, 2940
1873, 1570, 2940, 2941, 1569
1874, 2940, 1442, 1443, 2941
1875, 1569, 2941, 2942, 1568
1876, 2941, 1443, 1444, 2942
1877, 1568, 2942, 2943, 1567
1878, 2942, 1444, 1445, 2943
1879, 1567, 2943, 2944, 1566
1880, 2943, 1445, 1446, 2944
1881, 1566, 2944, 2945, 1565
1882, 2944, 1446, 1447, 2945
1883, 1565, 2945, 2946, 1564
1884, 2945, 1447, 1448, 2946
1885, 1564, 2946, 2947, 1563
1886, 2946, 1448, 1449, 2947
1887, 1563, 2947, 2948, 1562
1888, 2947, 1449, 1450, 2948
1889, 1562, 2948, 2949, 1561
1890, 2948, 1450, 1451, 2949
1891, 1561, 2949, 2950, 1560
1892, 2949, 1451, 1452, 2950
1893, 1560, 2950, 2951, 1559
1894, 2950, 1452, 1453, 2951
1895, 1559, 2951, 2952, 1558
1896, 2951, 1453, 1454, 2952
1897, 1558, 2952, 2953, 1557
1898, 2952, 1454, 1455, 2953
1899, 1557, 2953, 2954, 1556
1900, 2953, 1455, 1456, 2954
1901, 1556, 2954, 2955, 1555
1902, 2954, 1456, 1457, 2955
1903, 1555, 2955, 2956, 1554
1904, 2955, 1457, 1458, 2956
1905, 1554, 2956, 2957, 1553
1906, 2956, 1458, 1459, 2957
1907, 1553, 2957, 2958, 1552
1908, 2957, 1459, 1460, 2958
1909, 1552, 2958, 2959, 1551
1910, 2958, 1460, 1461, 2959
1911, 1551, 2959, 2960, 1550
1912, 2959, 1461, 1462, 2960
1913, 1550, 2960, 2961, 1549
1914, 2960, 1462, 1463, 2961
1915, 1549, 2961, 2962, 1548
1916, 2961, 1463, 1464, 2962
1917, 1548, 2962, 2963, 1547
1918, 2962, 1464, 1465, 2963
1919, 1547, 2963, 2964, 1546
1920, 2963, 1465, 1466, 2964
1921, 1546, 2964, 2965, 1545
1922, 2964, 1466, 1467, 2965
1923, 1545, 2965, 2966, 1544
1924, 2965, 1467, 1468, 2966
1925, 1544, 2966, 2967, 1543
1926, 2966, 1468, 1469, 2967
1927, 1543, 2967, 2968, 1542
1928, 2967, 1469, 1470, 2968
1929, 1542, 2968, 2969, 1541
1930, 2968, 1470, 1471, 2969
1931, 1541, 2969, 2970, 1540
1932, 2969, 1471, 1472, 2970
1933, 1540, 2970, 2971, 1539
1934, 2970, 1472, 1473, 2971
1935, 1539, 2971, 2972, 1538
1936, 2971, 1473, 1474, 2972
1937, 1538, 2972, 2973, 1537
1938, 2972, 1474, 1475, 2973
1939, 1537, 2973, 2974, 1536
1940, 2973, 1475, 1476, 2974
1941, 1536, 2974, 2975, 1535
1942, 2974, 1476, 1477, 2975
1943, 1535, 2975, 2976, 1534
1944, 2975, 1477, 1478, 2976
1945, 1534, 2976, 2977, 1533
1946, 2976, 1478, 1479, 2977
1947, 1533, 2977, 2978, 1532
1948, 2977, 1479, 1480, 2978
1949, 1532, 2978, 2979, 1531
1950, 2978, 1480, 1481, 2979
1951, 1531, 2979, 2980, 1530
1952, 2979, 1481, 1482, 2980
1953, 1530, 2980, 2981, 1529
1954, 2980, 1482, 1483, 2981
1955, 1529, 2981, 2982, 1528
1956, 2981, 1483, 1484, 2982
1957, 1528, 2982, 2983, 1527
1958, 2982, 1484, 1485, 2983
1959, 1527, 2983, 2984, 1526
1960, 2983, 1485, 1486, 2984
1961, 1526, 2984, 2985, 1525
1962, 2984, 1486, 1487, 2985
1963, 1525, 2985, 2986, 1524
1964, 2985, 1487, 1488, 2986
1965, 1524, 2986, 2987, 1523
1966, 2986, 1488, 1489, 2987
1967, 1523, 2987, 2988, 1522
1968, 2987, 1489, 1490, 2988
1969, 1522, 2988, 2989, 1521
1970, 2988, 1490, 1491, 2989
1971, 1521, 2989, 2990, 1520
1972, 2989, 1491, 1492, 2990
1973, 1520, 2990, 2991, 1519
1974, 2990, 1492, 1493, 2991
1975, 1519, 2991, 2992, 1518
1976, 2991, 1493, 1494, 2992
1977, 1518, 2992, 2993, 1517
1978, 2992, 1494, 1495, 2993
1979, 1517, 2993, 2994, 1516
1980, 2993, 1495, 1496, 2994
1981, 1516, 2994, 2995, 1515
1982, 2994, 1496, 1497, 2995
1983, 1515, 2995, 2996, 1514
1984, 2995, 1497, 1498, 2996
1985, 1514, 2996, 2997, 1513
1986, 2996, 1498, 1499, 2997
1987, 1513, 2997, 2998, 1512
1988, 2997, 1499, 1500, 2998
1989, 1512, 2998, 2999, 1511
1990, 2998, 1500, 1501, 2999
1991, 1511, 2999, 3000, 1510
1992, 2999, 1501, 1502, 3000
1993, 1510, 3000, 3001, 1509
1994, 3000, 1502, 1503, 3001
1995, 1509, 3001, 3002, 1508
1996, 3001, 1503, 1504, 3002
1997, 1508, 3002, 3003, 1507
1998, 3002, 1504, 1505, 3003
1999, 1507, 3003, 1506,    6
2000, 3003, 1505,    5, 1506
*Nset, nset=Set-1, generate
    1,  3003,     1
*Elset, elset=Set-1, generate
    1,  2000,     1
** Section: Adherend
*Solid Section, elset=Set-1, material=Adherend
1.,
*End Part
**  
*Part, name=Thin_Film
*Node
      1,   14.5165148,           1.
      2,          15.,           1.
      3,          15.,           6.
      4,   14.6000004,   1.39999998
      5,   14.6000004,           6.
      6,          14.,  0.483484864
      7,          14.,           0.
      8,   13.6000004,  0.400000006
      9,         -36.,  0.400000006
     10,         -36.,           0.
     11,   14.5970955,           1.
     12,   14.6776772,           1.
     13,   14.7582579,           1.
     14,   14.8388386,           1.
     15,   14.9194193,           1.
     16,          15.,   1.10000002
     17,          15.,   1.20000005
     18,          15.,   1.29999995
     19,          15.,   1.39999998
     20,          15.,          1.5
     21,          15.,   1.60000002
     22,          15.,   1.70000005
     23,          15.,   1.79999995
     24,          15.,   1.89999998
     25,          15.,           2.
     26,          15.,    2.0999999
     27,          15.,   2.20000005
     28,          15.,   2.29999995
     29,          15.,    2.4000001
     30,          15.,          2.5
     31,          15.,    2.5999999
     32,          15.,   2.70000005
     33,          15.,   2.79999995
     34,          15.,    2.9000001
     35,          15.,           3.
     36,          15.,    3.0999999
     37,          15.,   3.20000005
     38,          15.,   3.29999995
     39,          15.,    3.4000001
     40,          15.,          3.5
     41,          15.,    3.5999999
     42,          15.,   3.70000005
     43,          15.,   3.79999995
     44,          15.,    3.9000001
     45,          15.,           4.
     46,          15.,    4.0999999
     47,          15.,   4.19999981
     48,          15.,   4.30000019
     49,          15.,    4.4000001
     50,          15.,          4.5
     51,          15.,    4.5999999
     52,          15.,   4.69999981
     53,          15.,   4.80000019
     54,          15.,    4.9000001
     55,          15.,           5.
     56,          15.,    5.0999999
     57,          15.,   5.19999981
     58,          15.,   5.30000019
     59,          15.,    5.4000001
     60,          15.,          5.5
     61,          15.,    5.5999999
     62,          15.,   5.69999981
     63,          15.,   5.80000019
     64,          15.,    5.9000001
     65,   14.9333334,           6.
     66,   14.8666668,           6.
     67,   14.8000002,           6.
     68,   14.7333336,           6.
     69,    14.666667,           6.
     70,   14.5947123,   1.29730213
     71,   14.5789061,   1.19569039
     72,   14.5527487,   1.09623909
     73,   14.6000004,    5.9000001
     74,   14.6000004,   5.80000019
     75,   14.6000004,   5.69999981
     76,   14.6000004,    5.5999999
     77,   14.6000004,          5.5
     78,   14.6000004,    5.4000001
     79,   14.6000004,   5.30000019
     80,   14.6000004,   5.19999981
     81,   14.6000004,    5.0999999
     82,   14.6000004,           5.
     83,   14.6000004,    4.9000001
     84,   14.6000004,   4.80000019
     85,   14.6000004,   4.69999981
     86,   14.6000004,    4.5999999
     87,   14.6000004,          4.5
     88,   14.6000004,    4.4000001
     89,   14.6000004,   4.30000019
     90,   14.6000004,   4.19999981
     91,   14.6000004,    4.0999999
     92,   14.6000004,           4.
     93,   14.6000004,    3.9000001
     94,   14.6000004,   3.79999995
     95,   14.6000004,   3.70000005
     96,   14.6000004,    3.5999999
     97,   14.6000004,          3.5
     98,   14.6000004,    3.4000001
     99,   14.6000004,   3.29999995
    100,   14.6000004,   3.20000005
    101,   14.6000004,    3.0999999
    102,   14.6000004,           3.
    103,   14.6000004,    2.9000001
    104,   14.6000004,   2.79999995
    105,   14.6000004,   2.70000005
    106,   14.6000004,    2.5999999
    107,   14.6000004,          2.5
    108,   14.6000004,    2.4000001
    109,   14.6000004,   2.29999995
    110,   14.6000004,   2.20000005
    111,   14.6000004,    2.0999999
    112,   14.6000004,           2.
    113,   14.6000004,   1.89999998
    114,   14.6000004,   1.79999995
    115,   14.6000004,   1.70000005
    116,   14.6000004,   1.60000002
    117,   14.6000004,          1.5
    118,          14.,  0.402904063
    119,          14.,  0.322323233
    120,          14.,  0.241742432
    121,          14.,  0.161161616
    122,          14., 0.0805808082
    123,   14.0980167, 0.00481527345
    124,   14.1950903, 0.0192147195
    125,   14.2902851, 0.0430596657
    126,   14.3826838,  0.076120466
    127,   14.4713964,  0.118078738
    128,   14.5555706,   0.16853039
    129,   14.6343937,  0.226989552
    130,   14.7071066,  0.292893231
    131,   14.7730103,  0.365606725
    132,   14.8314695,  0.444429755
    133,   14.8819208,  0.528603256
    134,   14.9238796,  0.617316544
    135,   14.9569407,  0.709715307
    136,   14.9807854,  0.804909706
    137,   14.9951849,  0.901982844
    138,   14.4968271,  0.957618833
    139,   14.4751806,  0.916203797
    140,    14.451623,  0.875845194
    141,   14.4262056,  0.836631298
    142,    14.398984,  0.798647583
    143,   14.3700171,  0.761977196
    144,   14.3393698,  0.726700008
    145,    14.307107,  0.692893207
    146,   14.2733002,  0.660630584
    147,   14.2380228,  0.629982531
    148,   14.2013521,  0.601016104
    149,   14.1633692,  0.573794425
    150,    14.124155,  0.548376977
    151,   14.0837965,  0.524819314
    152,   14.0423813,  0.503172874
    153,   13.9037609,  0.447251707
    154,   13.8043098,  0.421093673
    155,   13.7026978,  0.405287415
    156,         13.5,  0.400000006
    157,   13.3999996,  0.400000006
    158,   13.3000002,  0.400000006
    159,   13.1999998,  0.400000006
    160,   13.1000004,  0.400000006
    161,          13.,  0.400000006
    162,   12.8999996,  0.400000006
    163,   12.8000002,  0.400000006
    164,   12.6999998,  0.400000006
    165,   12.6000004,  0.400000006
    166,         12.5,  0.400000006
    167,   12.3999996,  0.400000006
    168,   12.3000002,  0.400000006
    169,   12.1999998,  0.400000006
    170,   12.1000004,  0.400000006
    171,          12.,  0.400000006
    172,   11.8999996,  0.400000006
    173,   11.8000002,  0.400000006
    174,   11.6999998,  0.400000006
    175,   11.6000004,  0.400000006
    176,         11.5,  0.400000006
    177,   11.3999996,  0.400000006
    178,   11.3000002,  0.400000006
    179,   11.1999998,  0.400000006
    180,   11.1000004,  0.400000006
    181,          11.,  0.400000006
    182,   10.8999996,  0.400000006
    183,   10.8000002,  0.400000006
    184,   10.6999998,  0.400000006
    185,   10.6000004,  0.400000006
    186,         10.5,  0.400000006
    187,   10.3999996,  0.400000006
    188,   10.3000002,  0.400000006
    189,   10.1999998,  0.400000006
    190,   10.1000004,  0.400000006
    191,          10.,  0.400000006
    192,   9.89999962,  0.400000006
    193,   9.80000019,  0.400000006
    194,   9.69999981,  0.400000006
    195,   9.60000038,  0.400000006
    196,          9.5,  0.400000006
    197,   9.39999962,  0.400000006
    198,   9.30000019,  0.400000006
    199,   9.19999981,  0.400000006
    200,   9.10000038,  0.400000006
    201,           9.,  0.400000006
    202,   8.89999962,  0.400000006
    203,   8.80000019,  0.400000006
    204,   8.69999981,  0.400000006
    205,   8.60000038,  0.400000006
    206,          8.5,  0.400000006
    207,   8.39999962,  0.400000006
    208,   8.30000019,  0.400000006
    209,   8.19999981,  0.400000006
    210,   8.10000038,  0.400000006
    211,           8.,  0.400000006
    212,    7.9000001,  0.400000006
    213,   7.80000019,  0.400000006
    214,   7.69999981,  0.400000006
    215,    7.5999999,  0.400000006
    216,          7.5,  0.400000006
    217,    7.4000001,  0.400000006
    218,   7.30000019,  0.400000006
    219,   7.19999981,  0.400000006
    220,    7.0999999,  0.400000006
    221,           7.,  0.400000006
    222,    6.9000001,  0.400000006
    223,   6.80000019,  0.400000006
    224,   6.69999981,  0.400000006
    225,    6.5999999,  0.400000006
    226,          6.5,  0.400000006
    227,    6.4000001,  0.400000006
    228,   6.30000019,  0.400000006
    229,   6.19999981,  0.400000006
    230,    6.0999999,  0.400000006
    231,           6.,  0.400000006
    232,    5.9000001,  0.400000006
    233,   5.80000019,  0.400000006
    234,   5.69999981,  0.400000006
    235,    5.5999999,  0.400000006
    236,          5.5,  0.400000006
    237,    5.4000001,  0.400000006
    238,   5.30000019,  0.400000006
    239,   5.19999981,  0.400000006
    240,    5.0999999,  0.400000006
    241,           5.,  0.400000006
    242,    4.9000001,  0.400000006
    243,   4.80000019,  0.400000006
    244,   4.69999981,  0.400000006
    245,    4.5999999,  0.400000006
    246,          4.5,  0.400000006
    247,    4.4000001,  0.400000006
    248,   4.30000019,  0.400000006
    249,   4.19999981,  0.400000006
    250,    4.0999999,  0.400000006
    251,           4.,  0.400000006
    252,    3.9000001,  0.400000006
    253,   3.79999995,  0.400000006
    254,   3.70000005,  0.400000006
    255,    3.5999999,  0.400000006
    256,          3.5,  0.400000006
    257,    3.4000001,  0.400000006
    258,   3.29999995,  0.400000006
    259,   3.20000005,  0.400000006
    260,    3.0999999,  0.400000006
    261,           3.,  0.400000006
    262,    2.9000001,  0.400000006
    263,   2.79999995,  0.400000006
    264,   2.70000005,  0.400000006
    265,    2.5999999,  0.400000006
    266,          2.5,  0.400000006
    267,    2.4000001,  0.400000006
    268,   2.29999995,  0.400000006
    269,   2.20000005,  0.400000006
    270,    2.0999999,  0.400000006
    271,           2.,  0.400000006
    272,   1.89999998,  0.400000006
    273,   1.79999995,  0.400000006
    274,   1.70000005,  0.400000006
    275,   1.60000002,  0.400000006
    276,          1.5,  0.400000006
    277,   1.39999998,  0.400000006
    278,   1.29999995,  0.400000006
    279,   1.20000005,  0.400000006
    280,   1.10000002,  0.400000006
    281,           1.,  0.400000006
    282,  0.899999976,  0.400000006
    283,  0.800000012,  0.400000006
    284,  0.699999988,  0.400000006
    285,  0.600000024,  0.400000006
    286,          0.5,  0.400000006
    287,  0.400000006,  0.400000006
    288,  0.300000012,  0.400000006
    289,  0.200000003,  0.400000006
    290,  0.100000001,  0.400000006
    291,           0.,  0.400000006
    292, -0.100000001,  0.400000006
    293, -0.200000003,  0.400000006
    294, -0.300000012,  0.400000006
    295, -0.400000006,  0.400000006
    296,         -0.5,  0.400000006
    297, -0.600000024,  0.400000006
    298, -0.699999988,  0.400000006
    299, -0.800000012,  0.400000006
    300, -0.899999976,  0.400000006
    301,          -1.,  0.400000006
    302,  -1.10000002,  0.400000006
    303,  -1.20000005,  0.400000006
    304,  -1.29999995,  0.400000006
    305,  -1.39999998,  0.400000006
    306,         -1.5,  0.400000006
    307,  -1.60000002,  0.400000006
    308,  -1.70000005,  0.400000006
    309,  -1.79999995,  0.400000006
    310,  -1.89999998,  0.400000006
    311,          -2.,  0.400000006
    312,   -2.0999999,  0.400000006
    313,  -2.20000005,  0.400000006
    314,  -2.29999995,  0.400000006
    315,   -2.4000001,  0.400000006
    316,         -2.5,  0.400000006
    317,   -2.5999999,  0.400000006
    318,  -2.70000005,  0.400000006
    319,  -2.79999995,  0.400000006
    320,   -2.9000001,  0.400000006
    321,          -3.,  0.400000006
    322,   -3.0999999,  0.400000006
    323,  -3.20000005,  0.400000006
    324,  -3.29999995,  0.400000006
    325,   -3.4000001,  0.400000006
    326,         -3.5,  0.400000006
    327,   -3.5999999,  0.400000006
    328,  -3.70000005,  0.400000006
    329,  -3.79999995,  0.400000006
    330,   -3.9000001,  0.400000006
    331,          -4.,  0.400000006
    332,   -4.0999999,  0.400000006
    333,  -4.19999981,  0.400000006
    334,  -4.30000019,  0.400000006
    335,   -4.4000001,  0.400000006
    336,         -4.5,  0.400000006
    337,   -4.5999999,  0.400000006
    338,  -4.69999981,  0.400000006
    339,  -4.80000019,  0.400000006
    340,   -4.9000001,  0.400000006
    341,          -5.,  0.400000006
    342,   -5.0999999,  0.400000006
    343,  -5.19999981,  0.400000006
    344,  -5.30000019,  0.400000006
    345,   -5.4000001,  0.400000006
    346,         -5.5,  0.400000006
    347,   -5.5999999,  0.400000006
    348,  -5.69999981,  0.400000006
    349,  -5.80000019,  0.400000006
    350,   -5.9000001,  0.400000006
    351,          -6.,  0.400000006
    352,   -6.0999999,  0.400000006
    353,  -6.19999981,  0.400000006
    354,  -6.30000019,  0.400000006
    355,   -6.4000001,  0.400000006
    356,         -6.5,  0.400000006
    357,   -6.5999999,  0.400000006
    358,  -6.69999981,  0.400000006
    359,  -6.80000019,  0.400000006
    360,   -6.9000001,  0.400000006
    361,          -7.,  0.400000006
    362,   -7.0999999,  0.400000006
    363,  -7.19999981,  0.400000006
    364,  -7.30000019,  0.400000006
    365,   -7.4000001,  0.400000006
    366,         -7.5,  0.400000006
    367,   -7.5999999,  0.400000006
    368,  -7.69999981,  0.400000006
    369,  -7.80000019,  0.400000006
    370,   -7.9000001,  0.400000006
    371,          -8.,  0.400000006
    372,  -8.10000038,  0.400000006
    373,  -8.19999981,  0.400000006
    374,  -8.30000019,  0.400000006
    375,  -8.39999962,  0.400000006
    376,         -8.5,  0.400000006
    377,  -8.60000038,  0.400000006
    378,  -8.69999981,  0.400000006
    379,  -8.80000019,  0.400000006
    380,  -8.89999962,  0.400000006
    381,          -9.,  0.400000006
    382,  -9.10000038,  0.400000006
    383,  -9.19999981,  0.400000006
    384,  -9.30000019,  0.400000006
    385,  -9.39999962,  0.400000006
    386,         -9.5,  0.400000006
    387,  -9.60000038,  0.400000006
    388,  -9.69999981,  0.400000006
    389,  -9.80000019,  0.400000006
    390,  -9.89999962,  0.400000006
    391,         -10.,  0.400000006
    392,  -10.1000004,  0.400000006
    393,  -10.1999998,  0.400000006
    394,  -10.3000002,  0.400000006
    395,  -10.3999996,  0.400000006
    396,        -10.5,  0.400000006
    397,  -10.6000004,  0.400000006
    398,  -10.6999998,  0.400000006
    399,  -10.8000002,  0.400000006
    400,  -10.8999996,  0.400000006
    401,         -11.,  0.400000006
    402,  -11.1000004,  0.400000006
    403,  -11.1999998,  0.400000006
    404,  -11.3000002,  0.400000006
    405,  -11.3999996,  0.400000006
    406,        -11.5,  0.400000006
    407,  -11.6000004,  0.400000006
    408,  -11.6999998,  0.400000006
    409,  -11.8000002,  0.400000006
    410,  -11.8999996,  0.400000006
    411,         -12.,  0.400000006
    412,  -12.1000004,  0.400000006
    413,  -12.1999998,  0.400000006
    414,  -12.3000002,  0.400000006
    415,  -12.3999996,  0.400000006
    416,        -12.5,  0.400000006
    417,  -12.6000004,  0.400000006
    418,  -12.6999998,  0.400000006
    419,  -12.8000002,  0.400000006
    420,  -12.8999996,  0.400000006
    421,         -13.,  0.400000006
    422,  -13.1000004,  0.400000006
    423,  -13.1999998,  0.400000006
    424,  -13.3000002,  0.400000006
    425,  -13.3999996,  0.400000006
    426,        -13.5,  0.400000006
    427,  -13.6000004,  0.400000006
    428,  -13.6999998,  0.400000006
    429,  -13.8000002,  0.400000006
    430,  -13.8999996,  0.400000006
    431,         -14.,  0.400000006
    432,  -14.1000004,  0.400000006
    433,  -14.1999998,  0.400000006
    434,  -14.3000002,  0.400000006
    435,  -14.3999996,  0.400000006
    436,        -14.5,  0.400000006
    437,  -14.6000004,  0.400000006
    438,  -14.6999998,  0.400000006
    439,  -14.8000002,  0.400000006
    440,  -14.8999996,  0.400000006
    441,         -15.,  0.400000006
    442,  -15.1000004,  0.400000006
    443,  -15.1999998,  0.400000006
    444,  -15.3000002,  0.400000006
    445,  -15.3999996,  0.400000006
    446,        -15.5,  0.400000006
    447,  -15.6000004,  0.400000006
    448,  -15.6999998,  0.400000006
    449,  -15.8000002,  0.400000006
    450,  -15.8999996,  0.400000006
    451,         -16.,  0.400000006
    452,  -16.1000004,  0.400000006
    453,  -16.2000008,  0.400000006
    454,  -16.2999992,  0.400000006
    455,  -16.3999996,  0.400000006
    456,        -16.5,  0.400000006
    457,  -16.6000004,  0.400000006
    458,  -16.7000008,  0.400000006
    459,  -16.7999992,  0.400000006
    460,  -16.8999996,  0.400000006
    461,         -17.,  0.400000006
    462,  -17.1000004,  0.400000006
    463,  -17.2000008,  0.400000006
    464,  -17.2999992,  0.400000006
    465,  -17.3999996,  0.400000006
    466,        -17.5,  0.400000006
    467,  -17.6000004,  0.400000006
    468,  -17.7000008,  0.400000006
    469,  -17.7999992,  0.400000006
    470,  -17.8999996,  0.400000006
    471,         -18.,  0.400000006
    472,  -18.1000004,  0.400000006
    473,  -18.2000008,  0.400000006
    474,  -18.2999992,  0.400000006
    475,  -18.3999996,  0.400000006
    476,        -18.5,  0.400000006
    477,  -18.6000004,  0.400000006
    478,  -18.7000008,  0.400000006
    479,  -18.7999992,  0.400000006
    480,  -18.8999996,  0.400000006
    481,         -19.,  0.400000006
    482,  -19.1000004,  0.400000006
    483,  -19.2000008,  0.400000006
    484,  -19.2999992,  0.400000006
    485,  -19.3999996,  0.400000006
    486,        -19.5,  0.400000006
    487,  -19.6000004,  0.400000006
    488,  -19.7000008,  0.400000006
    489,  -19.7999992,  0.400000006
    490,  -19.8999996,  0.400000006
    491,         -20.,  0.400000006
    492,  -20.1000004,  0.400000006
    493,  -20.2000008,  0.400000006
    494,  -20.2999992,  0.400000006
    495,  -20.3999996,  0.400000006
    496,        -20.5,  0.400000006
    497,  -20.6000004,  0.400000006
    498,  -20.7000008,  0.400000006
    499,  -20.7999992,  0.400000006
    500,  -20.8999996,  0.400000006
    501,         -21.,  0.400000006
    502,  -21.1000004,  0.400000006
    503,  -21.2000008,  0.400000006
    504,  -21.2999992,  0.400000006
    505,  -21.3999996,  0.400000006
    506,        -21.5,  0.400000006
    507,  -21.6000004,  0.400000006
    508,  -21.7000008,  0.400000006
    509,  -21.7999992,  0.400000006
    510,  -21.8999996,  0.400000006
    511,         -22.,  0.400000006
    512,  -22.1000004,  0.400000006
    513,  -22.2000008,  0.400000006
    514,  -22.2999992,  0.400000006
    515,  -22.3999996,  0.400000006
    516,        -22.5,  0.400000006
    517,  -22.6000004,  0.400000006
    518,  -22.7000008,  0.400000006
    519,  -22.7999992,  0.400000006
    520,  -22.8999996,  0.400000006
    521,         -23.,  0.400000006
    522,  -23.1000004,  0.400000006
    523,  -23.2000008,  0.400000006
    524,  -23.2999992,  0.400000006
    525,  -23.3999996,  0.400000006
    526,        -23.5,  0.400000006
    527,  -23.6000004,  0.400000006
    528,  -23.7000008,  0.400000006
    529,  -23.7999992,  0.400000006
    530,  -23.8999996,  0.400000006
    531,         -24.,  0.400000006
    532,  -24.1000004,  0.400000006
    533,  -24.2000008,  0.400000006
    534,  -24.2999992,  0.400000006
    535,  -24.3999996,  0.400000006
    536,        -24.5,  0.400000006
    537,  -24.6000004,  0.400000006
    538,  -24.7000008,  0.400000006
    539,  -24.7999992,  0.400000006
    540,  -24.8999996,  0.400000006
    541,         -25.,  0.400000006
    542,  -25.1000004,  0.400000006
    543,  -25.2000008,  0.400000006
    544,  -25.2999992,  0.400000006
    545,  -25.3999996,  0.400000006
    546,        -25.5,  0.400000006
    547,  -25.6000004,  0.400000006
    548,  -25.7000008,  0.400000006
    549,  -25.7999992,  0.400000006
    550,  -25.8999996,  0.400000006
    551,         -26.,  0.400000006
    552,  -26.1000004,  0.400000006
    553,  -26.2000008,  0.400000006
    554,  -26.2999992,  0.400000006
    555,  -26.3999996,  0.400000006
    556,        -26.5,  0.400000006
    557,  -26.6000004,  0.400000006
    558,  -26.7000008,  0.400000006
    559,  -26.7999992,  0.400000006
    560,  -26.8999996,  0.400000006
    561,         -27.,  0.400000006
    562,  -27.1000004,  0.400000006
    563,  -27.2000008,  0.400000006
    564,  -27.2999992,  0.400000006
    565,  -27.3999996,  0.400000006
    566,        -27.5,  0.400000006
    567,  -27.6000004,  0.400000006
    568,  -27.7000008,  0.400000006
    569,  -27.7999992,  0.400000006
    570,  -27.8999996,  0.400000006
    571,         -28.,  0.400000006
    572,  -28.1000004,  0.400000006
    573,  -28.2000008,  0.400000006
    574,  -28.2999992,  0.400000006
    575,  -28.3999996,  0.400000006
    576,        -28.5,  0.400000006
    577,  -28.6000004,  0.400000006
    578,  -28.7000008,  0.400000006
    579,  -28.7999992,  0.400000006
    580,  -28.8999996,  0.400000006
    581,         -29.,  0.400000006
    582,  -29.1000004,  0.400000006
    583,  -29.2000008,  0.400000006
    584,  -29.2999992,  0.400000006
    585,  -29.3999996,  0.400000006
    586,        -29.5,  0.400000006
    587,  -29.6000004,  0.400000006
    588,  -29.7000008,  0.400000006
    589,  -29.7999992,  0.400000006
    590,  -29.8999996,  0.400000006
    591,         -30.,  0.400000006
    592,  -30.1000004,  0.400000006
    593,  -30.2000008,  0.400000006
    594,  -30.2999992,  0.400000006
    595,  -30.3999996,  0.400000006
    596,        -30.5,  0.400000006
    597,  -30.6000004,  0.400000006
    598,  -30.7000008,  0.400000006
    599,  -30.7999992,  0.400000006
    600,  -30.8999996,  0.400000006
    601,         -31.,  0.400000006
    602,  -31.1000004,  0.400000006
    603,  -31.2000008,  0.400000006
    604,  -31.2999992,  0.400000006
    605,  -31.3999996,  0.400000006
    606,        -31.5,  0.400000006
    607,  -31.6000004,  0.400000006
    608,  -31.7000008,  0.400000006
    609,  -31.7999992,  0.400000006
    610,  -31.8999996,  0.400000006
    611,         -32.,  0.400000006
    612,  -32.0999985,  0.400000006
    613,  -32.2000008,  0.400000006
    614,  -32.2999992,  0.400000006
    615,  -32.4000015,  0.400000006
    616,        -32.5,  0.400000006
    617,  -32.5999985,  0.400000006
    618,  -32.7000008,  0.400000006
    619,  -32.7999992,  0.400000006
    620,  -32.9000015,  0.400000006
    621,         -33.,  0.400000006
    622,  -33.0999985,  0.400000006
    623,  -33.2000008,  0.400000006
    624,  -33.2999992,  0.400000006
    625,  -33.4000015,  0.400000006
    626,        -33.5,  0.400000006
    627,  -33.5999985,  0.400000006
    628,  -33.7000008,  0.400000006
    629,  -33.7999992,  0.400000006
    630,  -33.9000015,  0.400000006
    631,         -34.,  0.400000006
    632,  -34.0999985,  0.400000006
    633,  -34.2000008,  0.400000006
    634,  -34.2999992,  0.400000006
    635,  -34.4000015,  0.400000006
    636,        -34.5,  0.400000006
    637,  -34.5999985,  0.400000006
    638,  -34.7000008,  0.400000006
    639,  -34.7999992,  0.400000006
    640,  -34.9000015,  0.400000006
    641,         -35.,  0.400000006
    642,  -35.0999985,  0.400000006
    643,  -35.2000008,  0.400000006
    644,  -35.2999992,  0.400000006
    645,  -35.4000015,  0.400000006
    646,        -35.5,  0.400000006
    647,  -35.5999985,  0.400000006
    648,  -35.7000008,  0.400000006
    649,  -35.7999992,  0.400000006
    650,  -35.9000015,  0.400000006
    651,         -36.,  0.333333343
    652,         -36.,  0.266666681
    653,         -36.,  0.200000003
    654,         -36.,   0.13333334
    655,         -36., 0.0666666701
    656,  -35.9000015,           0.
    657,  -35.7999992,           0.
    658,  -35.7000008,           0.
    659,  -35.5999985,           0.
    660,        -35.5,           0.
    661,  -35.4000015,           0.
    662,  -35.2999992,           0.
    663,  -35.2000008,           0.
    664,  -35.0999985,           0.
    665,         -35.,           0.
    666,  -34.9000015,           0.
    667,  -34.7999992,           0.
    668,  -34.7000008,           0.
    669,  -34.5999985,           0.
    670,        -34.5,           0.
    671,  -34.4000015,           0.
    672,  -34.2999992,           0.
    673,  -34.2000008,           0.
    674,  -34.0999985,           0.
    675,         -34.,           0.
    676,  -33.9000015,           0.
    677,  -33.7999992,           0.
    678,  -33.7000008,           0.
    679,  -33.5999985,           0.
    680,        -33.5,           0.
    681,  -33.4000015,           0.
    682,  -33.2999992,           0.
    683,  -33.2000008,           0.
    684,  -33.0999985,           0.
    685,         -33.,           0.
    686,  -32.9000015,           0.
    687,  -32.7999992,           0.
    688,  -32.7000008,           0.
    689,  -32.5999985,           0.
    690,        -32.5,           0.
    691,  -32.4000015,           0.
    692,  -32.2999992,           0.
    693,  -32.2000008,           0.
    694,  -32.0999985,           0.
    695,         -32.,           0.
    696,  -31.8999996,           0.
    697,  -31.7999992,           0.
    698,  -31.7000008,           0.
    699,  -31.6000004,           0.
    700,        -31.5,           0.
    701,  -31.3999996,           0.
    702,  -31.2999992,           0.
    703,  -31.2000008,           0.
    704,  -31.1000004,           0.
    705,         -31.,           0.
    706,  -30.8999996,           0.
    707,  -30.7999992,           0.
    708,  -30.7000008,           0.
    709,  -30.6000004,           0.
    710,        -30.5,           0.
    711,  -30.3999996,           0.
    712,  -30.2999992,           0.
    713,  -30.2000008,           0.
    714,  -30.1000004,           0.
    715,         -30.,           0.
    716,  -29.8999996,           0.
    717,  -29.7999992,           0.
    718,  -29.7000008,           0.
    719,  -29.6000004,           0.
    720,        -29.5,           0.
    721,  -29.3999996,           0.
    722,  -29.2999992,           0.
    723,  -29.2000008,           0.
    724,  -29.1000004,           0.
    725,         -29.,           0.
    726,  -28.8999996,           0.
    727,  -28.7999992,           0.
    728,  -28.7000008,           0.
    729,  -28.6000004,           0.
    730,        -28.5,           0.
    731,  -28.3999996,           0.
    732,  -28.2999992,           0.
    733,  -28.2000008,           0.
    734,  -28.1000004,           0.
    735,         -28.,           0.
    736,  -27.8999996,           0.
    737,  -27.7999992,           0.
    738,  -27.7000008,           0.
    739,  -27.6000004,           0.
    740,        -27.5,           0.
    741,  -27.3999996,           0.
    742,  -27.2999992,           0.
    743,  -27.2000008,           0.
    744,  -27.1000004,           0.
    745,         -27.,           0.
    746,  -26.8999996,           0.
    747,  -26.7999992,           0.
    748,  -26.7000008,           0.
    749,  -26.6000004,           0.
    750,        -26.5,           0.
    751,  -26.3999996,           0.
    752,  -26.2999992,           0.
    753,  -26.2000008,           0.
    754,  -26.1000004,           0.
    755,         -26.,           0.
    756,  -25.8999996,           0.
    757,  -25.7999992,           0.
    758,  -25.7000008,           0.
    759,  -25.6000004,           0.
    760,        -25.5,           0.
    761,  -25.3999996,           0.
    762,  -25.2999992,           0.
    763,  -25.2000008,           0.
    764,  -25.1000004,           0.
    765,         -25.,           0.
    766,  -24.8999996,           0.
    767,  -24.7999992,           0.
    768,  -24.7000008,           0.
    769,  -24.6000004,           0.
    770,        -24.5,           0.
    771,  -24.3999996,           0.
    772,  -24.2999992,           0.
    773,  -24.2000008,           0.
    774,  -24.1000004,           0.
    775,         -24.,           0.
    776,  -23.8999996,           0.
    777,  -23.7999992,           0.
    778,  -23.7000008,           0.
    779,  -23.6000004,           0.
    780,        -23.5,           0.
    781,  -23.3999996,           0.
    782,  -23.2999992,           0.
    783,  -23.2000008,           0.
    784,  -23.1000004,           0.
    785,         -23.,           0.
    786,  -22.8999996,           0.
    787,  -22.7999992,           0.
    788,  -22.7000008,           0.
    789,  -22.6000004,           0.
    790,        -22.5,           0.
    791,  -22.3999996,           0.
    792,  -22.2999992,           0.
    793,  -22.2000008,           0.
    794,  -22.1000004,           0.
    795,         -22.,           0.
    796,  -21.8999996,           0.
    797,  -21.7999992,           0.
    798,  -21.7000008,           0.
    799,  -21.6000004,           0.
    800,        -21.5,           0.
    801,  -21.3999996,           0.
    802,  -21.2999992,           0.
    803,  -21.2000008,           0.
    804,  -21.1000004,           0.
    805,         -21.,           0.
    806,  -20.8999996,           0.
    807,  -20.7999992,           0.
    808,  -20.7000008,           0.
    809,  -20.6000004,           0.
    810,        -20.5,           0.
    811,  -20.3999996,           0.
    812,  -20.2999992,           0.
    813,  -20.2000008,           0.
    814,  -20.1000004,           0.
    815,         -20.,           0.
    816,  -19.8999996,           0.
    817,  -19.7999992,           0.
    818,  -19.7000008,           0.
    819,  -19.6000004,           0.
    820,        -19.5,           0.
    821,  -19.3999996,           0.
    822,  -19.2999992,           0.
    823,  -19.2000008,           0.
    824,  -19.1000004,           0.
    825,         -19.,           0.
    826,  -18.8999996,           0.
    827,  -18.7999992,           0.
    828,  -18.7000008,           0.
    829,  -18.6000004,           0.
    830,        -18.5,           0.
    831,  -18.3999996,           0.
    832,  -18.2999992,           0.
    833,  -18.2000008,           0.
    834,  -18.1000004,           0.
    835,         -18.,           0.
    836,  -17.8999996,           0.
    837,  -17.7999992,           0.
    838,  -17.7000008,           0.
    839,  -17.6000004,           0.
    840,        -17.5,           0.
    841,  -17.3999996,           0.
    842,  -17.2999992,           0.
    843,  -17.2000008,           0.
    844,  -17.1000004,           0.
    845,         -17.,           0.
    846,  -16.8999996,           0.
    847,  -16.7999992,           0.
    848,  -16.7000008,           0.
    849,  -16.6000004,           0.
    850,        -16.5,           0.
    851,  -16.3999996,           0.
    852,  -16.2999992,           0.
    853,  -16.2000008,           0.
    854,  -16.1000004,           0.
    855,         -16.,           0.
    856,  -15.8999996,           0.
    857,  -15.8000002,           0.
    858,  -15.6999998,           0.
    859,  -15.6000004,           0.
    860,        -15.5,           0.
    861,  -15.3999996,           0.
    862,  -15.3000002,           0.
    863,  -15.1999998,           0.
    864,  -15.1000004,           0.
    865,         -15.,           0.
    866,  -14.8999996,           0.
    867,  -14.8000002,           0.
    868,  -14.6999998,           0.
    869,  -14.6000004,           0.
    870,        -14.5,           0.
    871,  -14.3999996,           0.
    872,  -14.3000002,           0.
    873,  -14.1999998,           0.
    874,  -14.1000004,           0.
    875,         -14.,           0.
    876,  -13.8999996,           0.
    877,  -13.8000002,           0.
    878,  -13.6999998,           0.
    879,  -13.6000004,           0.
    880,        -13.5,           0.
    881,  -13.3999996,           0.
    882,  -13.3000002,           0.
    883,  -13.1999998,           0.
    884,  -13.1000004,           0.
    885,         -13.,           0.
    886,  -12.8999996,           0.
    887,  -12.8000002,           0.
    888,  -12.6999998,           0.
    889,  -12.6000004,           0.
    890,        -12.5,           0.
    891,  -12.3999996,           0.
    892,  -12.3000002,           0.
    893,  -12.1999998,           0.
    894,  -12.1000004,           0.
    895,         -12.,           0.
    896,  -11.8999996,           0.
    897,  -11.8000002,           0.
    898,  -11.6999998,           0.
    899,  -11.6000004,           0.
    900,        -11.5,           0.
    901,  -11.3999996,           0.
    902,  -11.3000002,           0.
    903,  -11.1999998,           0.
    904,  -11.1000004,           0.
    905,         -11.,           0.
    906,  -10.8999996,           0.
    907,  -10.8000002,           0.
    908,  -10.6999998,           0.
    909,  -10.6000004,           0.
    910,        -10.5,           0.
    911,  -10.3999996,           0.
    912,  -10.3000002,           0.
    913,  -10.1999998,           0.
    914,  -10.1000004,           0.
    915,         -10.,           0.
    916,  -9.89999962,           0.
    917,  -9.80000019,           0.
    918,  -9.69999981,           0.
    919,  -9.60000038,           0.
    920,         -9.5,           0.
    921,  -9.39999962,           0.
    922,  -9.30000019,           0.
    923,  -9.19999981,           0.
    924,  -9.10000038,           0.
    925,          -9.,           0.
    926,  -8.89999962,           0.
    927,  -8.80000019,           0.
    928,  -8.69999981,           0.
    929,  -8.60000038,           0.
    930,         -8.5,           0.
    931,  -8.39999962,           0.
    932,  -8.30000019,           0.
    933,  -8.19999981,           0.
    934,  -8.10000038,           0.
    935,          -8.,           0.
    936,   -7.9000001,           0.
    937,  -7.80000019,           0.
    938,  -7.69999981,           0.
    939,   -7.5999999,           0.
    940,         -7.5,           0.
    941,   -7.4000001,           0.
    942,  -7.30000019,           0.
    943,  -7.19999981,           0.
    944,   -7.0999999,           0.
    945,          -7.,           0.
    946,   -6.9000001,           0.
    947,  -6.80000019,           0.
    948,  -6.69999981,           0.
    949,   -6.5999999,           0.
    950,         -6.5,           0.
    951,   -6.4000001,           0.
    952,  -6.30000019,           0.
    953,  -6.19999981,           0.
    954,   -6.0999999,           0.
    955,          -6.,           0.
    956,   -5.9000001,           0.
    957,  -5.80000019,           0.
    958,  -5.69999981,           0.
    959,   -5.5999999,           0.
    960,         -5.5,           0.
    961,   -5.4000001,           0.
    962,  -5.30000019,           0.
    963,  -5.19999981,           0.
    964,   -5.0999999,           0.
    965,          -5.,           0.
    966,   -4.9000001,           0.
    967,  -4.80000019,           0.
    968,  -4.69999981,           0.
    969,   -4.5999999,           0.
    970,         -4.5,           0.
    971,   -4.4000001,           0.
    972,  -4.30000019,           0.
    973,  -4.19999981,           0.
    974,   -4.0999999,           0.
    975,          -4.,           0.
    976,   -3.9000001,           0.
    977,  -3.79999995,           0.
    978,  -3.70000005,           0.
    979,   -3.5999999,           0.
    980,         -3.5,           0.
    981,   -3.4000001,           0.
    982,  -3.29999995,           0.
    983,  -3.20000005,           0.
    984,   -3.0999999,           0.
    985,          -3.,           0.
    986,   -2.9000001,           0.
    987,  -2.79999995,           0.
    988,  -2.70000005,           0.
    989,   -2.5999999,           0.
    990,         -2.5,           0.
    991,   -2.4000001,           0.
    992,  -2.29999995,           0.
    993,  -2.20000005,           0.
    994,   -2.0999999,           0.
    995,          -2.,           0.
    996,  -1.89999998,           0.
    997,  -1.79999995,           0.
    998,  -1.70000005,           0.
    999,  -1.60000002,           0.
   1000,         -1.5,           0.
   1001,  -1.39999998,           0.
   1002,  -1.29999995,           0.
   1003,  -1.20000005,           0.
   1004,  -1.10000002,           0.
   1005,          -1.,           0.
   1006, -0.899999976,           0.
   1007, -0.800000012,           0.
   1008, -0.699999988,           0.
   1009, -0.600000024,           0.
   1010,         -0.5,           0.
   1011, -0.400000006,           0.
   1012, -0.300000012,           0.
   1013, -0.200000003,           0.
   1014, -0.100000001,           0.
   1015,           0.,           0.
   1016,  0.100000001,           0.
   1017,  0.200000003,           0.
   1018,  0.300000012,           0.
   1019,  0.400000006,           0.
   1020,          0.5,           0.
   1021,  0.600000024,           0.
   1022,  0.699999988,           0.
   1023,  0.800000012,           0.
   1024,  0.899999976,           0.
   1025,           1.,           0.
   1026,   1.10000002,           0.
   1027,   1.20000005,           0.
   1028,   1.29999995,           0.
   1029,   1.39999998,           0.
   1030,          1.5,           0.
   1031,   1.60000002,           0.
   1032,   1.70000005,           0.
   1033,   1.79999995,           0.
   1034,   1.89999998,           0.
   1035,           2.,           0.
   1036,    2.0999999,           0.
   1037,   2.20000005,           0.
   1038,   2.29999995,           0.
   1039,    2.4000001,           0.
   1040,          2.5,           0.
   1041,    2.5999999,           0.
   1042,   2.70000005,           0.
   1043,   2.79999995,           0.
   1044,    2.9000001,           0.
   1045,           3.,           0.
   1046,    3.0999999,           0.
   1047,   3.20000005,           0.
   1048,   3.29999995,           0.
   1049,    3.4000001,           0.
   1050,          3.5,           0.
   1051,    3.5999999,           0.
   1052,   3.70000005,           0.
   1053,   3.79999995,           0.
   1054,    3.9000001,           0.
   1055,           4.,           0.
   1056,    4.0999999,           0.
   1057,   4.19999981,           0.
   1058,   4.30000019,           0.
   1059,    4.4000001,           0.
   1060,          4.5,           0.
   1061,    4.5999999,           0.
   1062,   4.69999981,           0.
   1063,   4.80000019,           0.
   1064,    4.9000001,           0.
   1065,           5.,           0.
   1066,    5.0999999,           0.
   1067,   5.19999981,           0.
   1068,   5.30000019,           0.
   1069,    5.4000001,           0.
   1070,          5.5,           0.
   1071,    5.5999999,           0.
   1072,   5.69999981,           0.
   1073,   5.80000019,           0.
   1074,    5.9000001,           0.
   1075,           6.,           0.
   1076,    6.0999999,           0.
   1077,   6.19999981,           0.
   1078,   6.30000019,           0.
   1079,    6.4000001,           0.
   1080,          6.5,           0.
   1081,    6.5999999,           0.
   1082,   6.69999981,           0.
   1083,   6.80000019,           0.
   1084,    6.9000001,           0.
   1085,           7.,           0.
   1086,    7.0999999,           0.
   1087,   7.19999981,           0.
   1088,   7.30000019,           0.
   1089,    7.4000001,           0.
   1090,          7.5,           0.
   1091,    7.5999999,           0.
   1092,   7.69999981,           0.
   1093,   7.80000019,           0.
   1094,    7.9000001,           0.
   1095,           8.,           0.
   1096,   8.10000038,           0.
   1097,   8.19999981,           0.
   1098,   8.30000019,           0.
   1099,   8.39999962,           0.
   1100,          8.5,           0.
   1101,   8.60000038,           0.
   1102,   8.69999981,           0.
   1103,   8.80000019,           0.
   1104,   8.89999962,           0.
   1105,           9.,           0.
   1106,   9.10000038,           0.
   1107,   9.19999981,           0.
   1108,   9.30000019,           0.
   1109,   9.39999962,           0.
   1110,          9.5,           0.
   1111,   9.60000038,           0.
   1112,   9.69999981,           0.
   1113,   9.80000019,           0.
   1114,   9.89999962,           0.
   1115,          10.,           0.
   1116,   10.1000004,           0.
   1117,   10.1999998,           0.
   1118,   10.3000002,           0.
   1119,   10.3999996,           0.
   1120,         10.5,           0.
   1121,   10.6000004,           0.
   1122,   10.6999998,           0.
   1123,   10.8000002,           0.
   1124,   10.8999996,           0.
   1125,          11.,           0.
   1126,   11.1000004,           0.
   1127,   11.1999998,           0.
   1128,   11.3000002,           0.
   1129,   11.3999996,           0.
   1130,         11.5,           0.
   1131,   11.6000004,           0.
   1132,   11.6999998,           0.
   1133,   11.8000002,           0.
   1134,   11.8999996,           0.
   1135,          12.,           0.
   1136,   12.1000004,           0.
   1137,   12.1999998,           0.
   1138,   12.3000002,           0.
   1139,   12.3999996,           0.
   1140,         12.5,           0.
   1141,   12.6000004,           0.
   1142,   12.6999998,           0.
   1143,   12.8000002,           0.
   1144,   12.8999996,           0.
   1145,          13.,           0.
   1146,   13.1000004,           0.
   1147,   13.1999998,           0.
   1148,   13.3000002,           0.
   1149,   13.3999996,           0.
   1150,         13.5,           0.
   1151,   13.6000004,           0.
   1152,   13.6999998,           0.
   1153,   13.8000002,           0.
   1154,   13.8999996,           0.
   1155,   14.6272898,   1.09686589
   1156,   14.7018318,   1.09749269
   1157,   14.7763739,    1.0981195
   1158,   14.8509159,    1.0987463
   1159,    14.925458,   1.09937322
   1160,   14.6490889,   1.19640863
   1161,   14.7192707,   1.19712687
   1162,   14.7894535,   1.19784522
   1163,   14.8596354,   1.19856346
   1164,   14.9298182,   1.19928169
   1165,   14.6622601,   1.29775178
   1166,   14.7298088,   1.29820144
   1167,   14.7973566,    1.2986511
   1168,   14.8649044,   1.29910076
   1169,   14.9324522,   1.29955041
   1170,    14.666667,   1.39999998
   1171,   14.7333336,   1.39999998
   1172,   14.8000002,   1.39999998
   1173,   14.8666668,   1.39999998
   1174,   14.9333334,   1.39999998
   1175,    14.666667,          1.5
   1176,   14.7333336,          1.5
   1177,   14.8000002,          1.5
   1178,   14.8666668,          1.5
   1179,   14.9333334,          1.5
   1180,    14.666667,   1.60000002
   1181,   14.7333336,   1.60000002
   1182,   14.8000002,   1.60000002
   1183,   14.8666668,   1.60000002
   1184,   14.9333334,   1.60000002
   1185,    14.666667,   1.70000005
   1186,   14.7333336,   1.70000005
   1187,   14.8000002,   1.70000005
   1188,   14.8666668,   1.70000005
   1189,   14.9333334,   1.70000005
   1190,    14.666667,   1.79999995
   1191,   14.7333336,   1.79999995
   1192,   14.8000002,   1.79999995
   1193,   14.8666668,   1.79999995
   1194,   14.9333334,   1.79999995
   1195,    14.666667,   1.89999998
   1196,   14.7333336,   1.89999998
   1197,   14.8000002,   1.89999998
   1198,   14.8666668,   1.89999998
   1199,   14.9333334,   1.89999998
   1200,    14.666667,           2.
   1201,   14.7333336,           2.
   1202,   14.8000002,           2.
   1203,   14.8666668,           2.
   1204,   14.9333334,           2.
   1205,    14.666667,    2.0999999
   1206,   14.7333336,    2.0999999
   1207,   14.8000002,    2.0999999
   1208,   14.8666668,    2.0999999
   1209,   14.9333334,    2.0999999
   1210,    14.666667,   2.20000005
   1211,   14.7333336,   2.20000005
   1212,   14.8000002,   2.20000005
   1213,   14.8666668,   2.20000005
   1214,   14.9333334,   2.20000005
   1215,    14.666667,   2.29999995
   1216,   14.7333336,   2.29999995
   1217,   14.8000002,   2.29999995
   1218,   14.8666668,   2.29999995
   1219,   14.9333334,   2.29999995
   1220,    14.666667,    2.4000001
   1221,   14.7333336,    2.4000001
   1222,   14.8000002,    2.4000001
   1223,   14.8666668,    2.4000001
   1224,   14.9333334,    2.4000001
   1225,    14.666667,          2.5
   1226,   14.7333336,          2.5
   1227,   14.8000002,          2.5
   1228,   14.8666668,          2.5
   1229,   14.9333334,          2.5
   1230,    14.666667,    2.5999999
   1231,   14.7333336,    2.5999999
   1232,   14.8000002,    2.5999999
   1233,   14.8666668,    2.5999999
   1234,   14.9333334,    2.5999999
   1235,    14.666667,   2.70000005
   1236,   14.7333336,   2.70000005
   1237,   14.8000002,   2.70000005
   1238,   14.8666668,   2.70000005
   1239,   14.9333334,   2.70000005
   1240,    14.666667,   2.79999995
   1241,   14.7333336,   2.79999995
   1242,   14.8000002,   2.79999995
   1243,   14.8666668,   2.79999995
   1244,   14.9333334,   2.79999995
   1245,    14.666667,    2.9000001
   1246,   14.7333336,    2.9000001
   1247,   14.8000002,    2.9000001
   1248,   14.8666668,    2.9000001
   1249,   14.9333334,    2.9000001
   1250,    14.666667,           3.
   1251,   14.7333336,           3.
   1252,   14.8000002,           3.
   1253,   14.8666668,           3.
   1254,   14.9333334,           3.
   1255,    14.666667,    3.0999999
   1256,   14.7333336,    3.0999999
   1257,   14.8000002,    3.0999999
   1258,   14.8666668,    3.0999999
   1259,   14.9333334,    3.0999999
   1260,    14.666667,   3.20000005
   1261,   14.7333336,   3.20000005
   1262,   14.8000002,   3.20000005
   1263,   14.8666668,   3.20000005
   1264,   14.9333334,   3.20000005
   1265,    14.666667,   3.29999995
   1266,   14.7333336,   3.29999995
   1267,   14.8000002,   3.29999995
   1268,   14.8666668,   3.29999995
   1269,   14.9333334,   3.29999995
   1270,    14.666667,    3.4000001
   1271,   14.7333336,    3.4000001
   1272,   14.8000002,    3.4000001
   1273,   14.8666668,    3.4000001
   1274,   14.9333334,    3.4000001
   1275,    14.666667,          3.5
   1276,   14.7333336,          3.5
   1277,   14.8000002,          3.5
   1278,   14.8666668,          3.5
   1279,   14.9333334,          3.5
   1280,    14.666667,    3.5999999
   1281,   14.7333336,    3.5999999
   1282,   14.8000002,    3.5999999
   1283,   14.8666668,    3.5999999
   1284,   14.9333334,    3.5999999
   1285,    14.666667,   3.70000005
   1286,   14.7333336,   3.70000005
   1287,   14.8000002,   3.70000005
   1288,   14.8666668,   3.70000005
   1289,   14.9333334,   3.70000005
   1290,    14.666667,   3.79999995
   1291,   14.7333336,   3.79999995
   1292,   14.8000002,   3.79999995
   1293,   14.8666668,   3.79999995
   1294,   14.9333334,   3.79999995
   1295,    14.666667,    3.9000001
   1296,   14.7333336,    3.9000001
   1297,   14.8000002,    3.9000001
   1298,   14.8666668,    3.9000001
   1299,   14.9333334,    3.9000001
   1300,    14.666667,           4.
   1301,   14.7333336,           4.
   1302,   14.8000002,           4.
   1303,   14.8666668,           4.
   1304,   14.9333334,           4.
   1305,    14.666667,    4.0999999
   1306,   14.7333336,    4.0999999
   1307,   14.8000002,    4.0999999
   1308,   14.8666668,    4.0999999
   1309,   14.9333334,    4.0999999
   1310,    14.666667,   4.19999981
   1311,   14.7333336,   4.19999981
   1312,   14.8000002,   4.19999981
   1313,   14.8666668,   4.19999981
   1314,   14.9333334,   4.19999981
   1315,    14.666667,   4.30000019
   1316,   14.7333336,   4.30000019
   1317,   14.8000002,   4.30000019
   1318,   14.8666668,   4.30000019
   1319,   14.9333334,   4.30000019
   1320,    14.666667,    4.4000001
   1321,   14.7333336,    4.4000001
   1322,   14.8000002,    4.4000001
   1323,   14.8666668,    4.4000001
   1324,   14.9333334,    4.4000001
   1325,    14.666667,          4.5
   1326,   14.7333336,          4.5
   1327,   14.8000002,          4.5
   1328,   14.8666668,          4.5
   1329,   14.9333334,          4.5
   1330,    14.666667,    4.5999999
   1331,   14.7333336,    4.5999999
   1332,   14.8000002,    4.5999999
   1333,   14.8666668,    4.5999999
   1334,   14.9333334,    4.5999999
   1335,    14.666667,   4.69999981
   1336,   14.7333336,   4.69999981
   1337,   14.8000002,   4.69999981
   1338,   14.8666668,   4.69999981
   1339,   14.9333334,   4.69999981
   1340,    14.666667,   4.80000019
   1341,   14.7333336,   4.80000019
   1342,   14.8000002,   4.80000019
   1343,   14.8666668,   4.80000019
   1344,   14.9333334,   4.80000019
   1345,    14.666667,    4.9000001
   1346,   14.7333336,    4.9000001
   1347,   14.8000002,    4.9000001
   1348,   14.8666668,    4.9000001
   1349,   14.9333334,    4.9000001
   1350,    14.666667,           5.
   1351,   14.7333336,           5.
   1352,   14.8000002,           5.
   1353,   14.8666668,           5.
   1354,   14.9333334,           5.
   1355,    14.666667,    5.0999999
   1356,   14.7333336,    5.0999999
   1357,   14.8000002,    5.0999999
   1358,   14.8666668,    5.0999999
   1359,   14.9333334,    5.0999999
   1360,    14.666667,   5.19999981
   1361,   14.7333336,   5.19999981
   1362,   14.8000002,   5.19999981
   1363,   14.8666668,   5.19999981
   1364,   14.9333334,   5.19999981
   1365,    14.666667,   5.30000019
   1366,   14.7333336,   5.30000019
   1367,   14.8000002,   5.30000019
   1368,   14.8666668,   5.30000019
   1369,   14.9333334,   5.30000019
   1370,    14.666667,    5.4000001
   1371,   14.7333336,    5.4000001
   1372,   14.8000002,    5.4000001
   1373,   14.8666668,    5.4000001
   1374,   14.9333334,    5.4000001
   1375,    14.666667,          5.5
   1376,   14.7333336,          5.5
   1377,   14.8000002,          5.5
   1378,   14.8666668,          5.5
   1379,   14.9333334,          5.5
   1380,    14.666667,    5.5999999
   1381,   14.7333336,    5.5999999
   1382,   14.8000002,    5.5999999
   1383,   14.8666668,    5.5999999
   1384,   14.9333334,    5.5999999
   1385,    14.666667,   5.69999981
   1386,   14.7333336,   5.69999981
   1387,   14.8000002,   5.69999981
   1388,   14.8666668,   5.69999981
   1389,   14.9333334,   5.69999981
   1390,    14.666667,   5.80000019
   1391,   14.7333336,   5.80000019
   1392,   14.8000002,   5.80000019
   1393,   14.8666668,   5.80000019
   1394,   14.9333334,   5.80000019
   1395,    14.666667,    5.9000001
   1396,   14.7333336,    5.9000001
   1397,   14.8000002,    5.9000001
   1398,   14.8666668,    5.9000001
   1399,   14.9333334,    5.9000001
   1400,   14.0516539,  0.420113266
   1401,   14.0609264,  0.337053657
   1402,    14.070199,  0.253994077
   1403,   14.0794716,  0.170934469
   1404,   14.0887442,  0.087874867
   1405,   14.1023455,  0.440551877
   1406,   14.1208944,   0.35628444
   1407,   14.1394434,  0.272017032
   1408,   14.1579924,   0.18774958
   1409,   14.1765413,   0.10348215
   1410,   14.1518431,  0.464157432
   1411,   14.1795311,  0.379937887
   1412,   14.2072201,  0.295718312
   1413,   14.2349081,  0.211498767
   1414,   14.2625961,  0.127279222
   1415,   14.1999216,   0.49084875
   1416,    14.236474,  0.407903105
   1417,   14.2730265,   0.32495743
   1418,   14.3095789,  0.242011786
   1419,   14.3461313,  0.159066126
   1420,   14.2463598,  0.520526528
   1421,   14.2913675,  0.440036952
   1422,   14.3363743,  0.359547406
   1423,    14.381382,   0.27905786
   1424,   14.4263897,  0.198568299
   1425,    14.290947,  0.553073883
   1426,   14.3438721,  0.476165175
   1427,   14.3967962,  0.399256468
   1428,   14.4497213,   0.32234779
   1429,   14.5026455,  0.245439082
   1430,   14.3334818,  0.588357091
   1431,   14.3936644,  0.516083539
   1432,   14.4538469,  0.443810076
   1433,   14.5140285,  0.371536553
   1434,   14.5742111,   0.29926306
   1435,   14.3737736,  0.626226544
   1436,   14.4404402,  0.559559882
   1437,   14.5071068,  0.492893219
   1438,   14.5737734,  0.426226556
   1439,     14.64044,  0.359559894
   1440,    14.411643,  0.666517794
   1441,   14.4839163,   0.60633558
   1442,   14.5561895,  0.546153367
   1443,   14.6284637,  0.485971153
   1444,    14.700737,  0.425788939
   1445,   14.4469261,  0.709052622
   1446,   14.5238352,  0.656128049
   1447,   14.6007433,  0.603203475
   1448,   14.6776524,  0.550278902
   1449,   14.7545605,  0.497354329
   1450,   14.4794731,  0.753640234
   1451,   14.5599632,  0.708632827
   1452,   14.6404524,  0.663625419
   1453,   14.7209425,  0.618618071
   1454,   14.8014317,  0.573610663
   1455,   14.5091515,  0.800078809
   1456,   14.5920973,   0.76352638
   1457,   14.6750422,  0.726973891
   1458,    14.757988,  0.690421462
   1459,   14.8409338,  0.653869033
   1460,   14.5358429,  0.848156869
   1461,   14.6200619,  0.820468605
   1462,   14.7042818,   0.79278028
   1463,   14.7885008,  0.765091956
   1464,   14.8727207,  0.737403631
   1465,   14.5594482,  0.897654772
   1466,   14.6437159,  0.879105747
   1467,   14.7279825,  0.860556722
   1468,   14.8122501,  0.842007697
   1469,   14.8965178,  0.823458672
   1470,   14.5798864,  0.948346198
   1471,   14.6629467,  0.939073503
   1472,    14.746006,  0.929800868
   1473,   14.8290653,  0.920528173
   1474,   14.9121256,  0.911255538
   1475,   13.9006271, 0.0745419487
   1476,   13.9012537,  0.149083897
   1477,   13.9018803,  0.223625854
   1478,   13.9025068,  0.298167795
   1479,   13.9031343,  0.372709751
   1480,   13.8007183, 0.0701822788
   1481,   13.8014364,  0.140364558
   1482,   13.8021545,  0.210546836
   1483,   13.8028727,  0.280729115
   1484,   13.8035917,  0.350911409
   1485,   13.7004499, 0.0675479025
   1486,   13.7008991,  0.135095805
   1487,   13.7013493,  0.202643707
   1488,   13.7017984,   0.27019161
   1489,   13.7022486,  0.337739497
   1490,   13.6000004, 0.0666666701
   1491,   13.6000004,   0.13333334
   1492,   13.6000004,  0.200000003
   1493,   13.6000004,  0.266666681
   1494,   13.6000004,  0.333333343
   1495,         13.5, 0.0666666701
   1496,         13.5,   0.13333334
   1497,         13.5,  0.200000003
   1498,         13.5,  0.266666681
   1499,         13.5,  0.333333343
   1500,   13.3999996, 0.0666666701
   1501,   13.3999996,   0.13333334
   1502,   13.3999996,  0.200000003
   1503,   13.3999996,  0.266666681
   1504,   13.3999996,  0.333333343
   1505,   13.3000002, 0.0666666701
   1506,   13.3000002,   0.13333334
   1507,   13.3000002,  0.200000003
   1508,   13.3000002,  0.266666681
   1509,   13.3000002,  0.333333343
   1510,   13.1999998, 0.0666666701
   1511,   13.1999998,   0.13333334
   1512,   13.1999998,  0.200000003
   1513,   13.1999998,  0.266666681
   1514,   13.1999998,  0.333333343
   1515,   13.1000004, 0.0666666701
   1516,   13.1000004,   0.13333334
   1517,   13.1000004,  0.200000003
   1518,   13.1000004,  0.266666681
   1519,   13.1000004,  0.333333343
   1520,          13., 0.0666666701
   1521,          13.,   0.13333334
   1522,          13.,  0.200000003
   1523,          13.,  0.266666681
   1524,          13.,  0.333333343
   1525,   12.8999996, 0.0666666701
   1526,   12.8999996,   0.13333334
   1527,   12.8999996,  0.200000003
   1528,   12.8999996,  0.266666681
   1529,   12.8999996,  0.333333343
   1530,   12.8000002, 0.0666666701
   1531,   12.8000002,   0.13333334
   1532,   12.8000002,  0.200000003
   1533,   12.8000002,  0.266666681
   1534,   12.8000002,  0.333333343
   1535,   12.6999998, 0.0666666701
   1536,   12.6999998,   0.13333334
   1537,   12.6999998,  0.200000003
   1538,   12.6999998,  0.266666681
   1539,   12.6999998,  0.333333343
   1540,   12.6000004, 0.0666666701
   1541,   12.6000004,   0.13333334
   1542,   12.6000004,  0.200000003
   1543,   12.6000004,  0.266666681
   1544,   12.6000004,  0.333333343
   1545,         12.5, 0.0666666701
   1546,         12.5,   0.13333334
   1547,         12.5,  0.200000003
   1548,         12.5,  0.266666681
   1549,         12.5,  0.333333343
   1550,   12.3999996, 0.0666666701
   1551,   12.3999996,   0.13333334
   1552,   12.3999996,  0.200000003
   1553,   12.3999996,  0.266666681
   1554,   12.3999996,  0.333333343
   1555,   12.3000002, 0.0666666701
   1556,   12.3000002,   0.13333334
   1557,   12.3000002,  0.200000003
   1558,   12.3000002,  0.266666681
   1559,   12.3000002,  0.333333343
   1560,   12.1999998, 0.0666666701
   1561,   12.1999998,   0.13333334
   1562,   12.1999998,  0.200000003
   1563,   12.1999998,  0.266666681
   1564,   12.1999998,  0.333333343
   1565,   12.1000004, 0.0666666701
   1566,   12.1000004,   0.13333334
   1567,   12.1000004,  0.200000003
   1568,   12.1000004,  0.266666681
   1569,   12.1000004,  0.333333343
   1570,          12., 0.0666666701
   1571,          12.,   0.13333334
   1572,          12.,  0.200000003
   1573,          12.,  0.266666681
   1574,          12.,  0.333333343
   1575,   11.8999996, 0.0666666701
   1576,   11.8999996,   0.13333334
   1577,   11.8999996,  0.200000003
   1578,   11.8999996,  0.266666681
   1579,   11.8999996,  0.333333343
   1580,   11.8000002, 0.0666666701
   1581,   11.8000002,   0.13333334
   1582,   11.8000002,  0.200000003
   1583,   11.8000002,  0.266666681
   1584,   11.8000002,  0.333333343
   1585,   11.6999998, 0.0666666701
   1586,   11.6999998,   0.13333334
   1587,   11.6999998,  0.200000003
   1588,   11.6999998,  0.266666681
   1589,   11.6999998,  0.333333343
   1590,   11.6000004, 0.0666666701
   1591,   11.6000004,   0.13333334
   1592,   11.6000004,  0.200000003
   1593,   11.6000004,  0.266666681
   1594,   11.6000004,  0.333333343
   1595,         11.5, 0.0666666701
   1596,         11.5,   0.13333334
   1597,         11.5,  0.200000003
   1598,         11.5,  0.266666681
   1599,         11.5,  0.333333343
   1600,   11.3999996, 0.0666666701
   1601,   11.3999996,   0.13333334
   1602,   11.3999996,  0.200000003
   1603,   11.3999996,  0.266666681
   1604,   11.3999996,  0.333333343
   1605,   11.3000002, 0.0666666701
   1606,   11.3000002,   0.13333334
   1607,   11.3000002,  0.200000003
   1608,   11.3000002,  0.266666681
   1609,   11.3000002,  0.333333343
   1610,   11.1999998, 0.0666666701
   1611,   11.1999998,   0.13333334
   1612,   11.1999998,  0.200000003
   1613,   11.1999998,  0.266666681
   1614,   11.1999998,  0.333333343
   1615,   11.1000004, 0.0666666701
   1616,   11.1000004,   0.13333334
   1617,   11.1000004,  0.200000003
   1618,   11.1000004,  0.266666681
   1619,   11.1000004,  0.333333343
   1620,          11., 0.0666666701
   1621,          11.,   0.13333334
   1622,          11.,  0.200000003
   1623,          11.,  0.266666681
   1624,          11.,  0.333333343
   1625,   10.8999996, 0.0666666701
   1626,   10.8999996,   0.13333334
   1627,   10.8999996,  0.200000003
   1628,   10.8999996,  0.266666681
   1629,   10.8999996,  0.333333343
   1630,   10.8000002, 0.0666666701
   1631,   10.8000002,   0.13333334
   1632,   10.8000002,  0.200000003
   1633,   10.8000002,  0.266666681
   1634,   10.8000002,  0.333333343
   1635,   10.6999998, 0.0666666701
   1636,   10.6999998,   0.13333334
   1637,   10.6999998,  0.200000003
   1638,   10.6999998,  0.266666681
   1639,   10.6999998,  0.333333343
   1640,   10.6000004, 0.0666666701
   1641,   10.6000004,   0.13333334
   1642,   10.6000004,  0.200000003
   1643,   10.6000004,  0.266666681
   1644,   10.6000004,  0.333333343
   1645,         10.5, 0.0666666701
   1646,         10.5,   0.13333334
   1647,         10.5,  0.200000003
   1648,         10.5,  0.266666681
   1649,         10.5,  0.333333343
   1650,   10.3999996, 0.0666666701
   1651,   10.3999996,   0.13333334
   1652,   10.3999996,  0.200000003
   1653,   10.3999996,  0.266666681
   1654,   10.3999996,  0.333333343
   1655,   10.3000002, 0.0666666701
   1656,   10.3000002,   0.13333334
   1657,   10.3000002,  0.200000003
   1658,   10.3000002,  0.266666681
   1659,   10.3000002,  0.333333343
   1660,   10.1999998, 0.0666666701
   1661,   10.1999998,   0.13333334
   1662,   10.1999998,  0.200000003
   1663,   10.1999998,  0.266666681
   1664,   10.1999998,  0.333333343
   1665,   10.1000004, 0.0666666701
   1666,   10.1000004,   0.13333334
   1667,   10.1000004,  0.200000003
   1668,   10.1000004,  0.266666681
   1669,   10.1000004,  0.333333343
   1670,          10., 0.0666666701
   1671,          10.,   0.13333334
   1672,          10.,  0.200000003
   1673,          10.,  0.266666681
   1674,          10.,  0.333333343
   1675,   9.89999962, 0.0666666701
   1676,   9.89999962,   0.13333334
   1677,   9.89999962,  0.200000003
   1678,   9.89999962,  0.266666681
   1679,   9.89999962,  0.333333343
   1680,   9.80000019, 0.0666666701
   1681,   9.80000019,   0.13333334
   1682,   9.80000019,  0.200000003
   1683,   9.80000019,  0.266666681
   1684,   9.80000019,  0.333333343
   1685,   9.69999981, 0.0666666701
   1686,   9.69999981,   0.13333334
   1687,   9.69999981,  0.200000003
   1688,   9.69999981,  0.266666681
   1689,   9.69999981,  0.333333343
   1690,   9.60000038, 0.0666666701
   1691,   9.60000038,   0.13333334
   1692,   9.60000038,  0.200000003
   1693,   9.60000038,  0.266666681
   1694,   9.60000038,  0.333333343
   1695,          9.5, 0.0666666701
   1696,          9.5,   0.13333334
   1697,          9.5,  0.200000003
   1698,          9.5,  0.266666681
   1699,          9.5,  0.333333343
   1700,   9.39999962, 0.0666666701
   1701,   9.39999962,   0.13333334
   1702,   9.39999962,  0.200000003
   1703,   9.39999962,  0.266666681
   1704,   9.39999962,  0.333333343
   1705,   9.30000019, 0.0666666701
   1706,   9.30000019,   0.13333334
   1707,   9.30000019,  0.200000003
   1708,   9.30000019,  0.266666681
   1709,   9.30000019,  0.333333343
   1710,   9.19999981, 0.0666666701
   1711,   9.19999981,   0.13333334
   1712,   9.19999981,  0.200000003
   1713,   9.19999981,  0.266666681
   1714,   9.19999981,  0.333333343
   1715,   9.10000038, 0.0666666701
   1716,   9.10000038,   0.13333334
   1717,   9.10000038,  0.200000003
   1718,   9.10000038,  0.266666681
   1719,   9.10000038,  0.333333343
   1720,           9., 0.0666666701
   1721,           9.,   0.13333334
   1722,           9.,  0.200000003
   1723,           9.,  0.266666681
   1724,           9.,  0.333333343
   1725,   8.89999962, 0.0666666701
   1726,   8.89999962,   0.13333334
   1727,   8.89999962,  0.200000003
   1728,   8.89999962,  0.266666681
   1729,   8.89999962,  0.333333343
   1730,   8.80000019, 0.0666666701
   1731,   8.80000019,   0.13333334
   1732,   8.80000019,  0.200000003
   1733,   8.80000019,  0.266666681
   1734,   8.80000019,  0.333333343
   1735,   8.69999981, 0.0666666701
   1736,   8.69999981,   0.13333334
   1737,   8.69999981,  0.200000003
   1738,   8.69999981,  0.266666681
   1739,   8.69999981,  0.333333343
   1740,   8.60000038, 0.0666666701
   1741,   8.60000038,   0.13333334
   1742,   8.60000038,  0.200000003
   1743,   8.60000038,  0.266666681
   1744,   8.60000038,  0.333333343
   1745,          8.5, 0.0666666701
   1746,          8.5,   0.13333334
   1747,          8.5,  0.200000003
   1748,          8.5,  0.266666681
   1749,          8.5,  0.333333343
   1750,   8.39999962, 0.0666666701
   1751,   8.39999962,   0.13333334
   1752,   8.39999962,  0.200000003
   1753,   8.39999962,  0.266666681
   1754,   8.39999962,  0.333333343
   1755,   8.30000019, 0.0666666701
   1756,   8.30000019,   0.13333334
   1757,   8.30000019,  0.200000003
   1758,   8.30000019,  0.266666681
   1759,   8.30000019,  0.333333343
   1760,   8.19999981, 0.0666666701
   1761,   8.19999981,   0.13333334
   1762,   8.19999981,  0.200000003
   1763,   8.19999981,  0.266666681
   1764,   8.19999981,  0.333333343
   1765,   8.10000038, 0.0666666701
   1766,   8.10000038,   0.13333334
   1767,   8.10000038,  0.200000003
   1768,   8.10000038,  0.266666681
   1769,   8.10000038,  0.333333343
   1770,           8., 0.0666666701
   1771,           8.,   0.13333334
   1772,           8.,  0.200000003
   1773,           8.,  0.266666681
   1774,           8.,  0.333333343
   1775,    7.9000001, 0.0666666701
   1776,    7.9000001,   0.13333334
   1777,    7.9000001,  0.200000003
   1778,    7.9000001,  0.266666681
   1779,    7.9000001,  0.333333343
   1780,   7.80000019, 0.0666666701
   1781,   7.80000019,   0.13333334
   1782,   7.80000019,  0.200000003
   1783,   7.80000019,  0.266666681
   1784,   7.80000019,  0.333333343
   1785,   7.69999981, 0.0666666701
   1786,   7.69999981,   0.13333334
   1787,   7.69999981,  0.200000003
   1788,   7.69999981,  0.266666681
   1789,   7.69999981,  0.333333343
   1790,    7.5999999, 0.0666666701
   1791,    7.5999999,   0.13333334
   1792,    7.5999999,  0.200000003
   1793,    7.5999999,  0.266666681
   1794,    7.5999999,  0.333333343
   1795,          7.5, 0.0666666701
   1796,          7.5,   0.13333334
   1797,          7.5,  0.200000003
   1798,          7.5,  0.266666681
   1799,          7.5,  0.333333343
   1800,    7.4000001, 0.0666666701
   1801,    7.4000001,   0.13333334
   1802,    7.4000001,  0.200000003
   1803,    7.4000001,  0.266666681
   1804,    7.4000001,  0.333333343
   1805,   7.30000019, 0.0666666701
   1806,   7.30000019,   0.13333334
   1807,   7.30000019,  0.200000003
   1808,   7.30000019,  0.266666681
   1809,   7.30000019,  0.333333343
   1810,   7.19999981, 0.0666666701
   1811,   7.19999981,   0.13333334
   1812,   7.19999981,  0.200000003
   1813,   7.19999981,  0.266666681
   1814,   7.19999981,  0.333333343
   1815,    7.0999999, 0.0666666701
   1816,    7.0999999,   0.13333334
   1817,    7.0999999,  0.200000003
   1818,    7.0999999,  0.266666681
   1819,    7.0999999,  0.333333343
   1820,           7., 0.0666666701
   1821,           7.,   0.13333334
   1822,           7.,  0.200000003
   1823,           7.,  0.266666681
   1824,           7.,  0.333333343
   1825,    6.9000001, 0.0666666701
   1826,    6.9000001,   0.13333334
   1827,    6.9000001,  0.200000003
   1828,    6.9000001,  0.266666681
   1829,    6.9000001,  0.333333343
   1830,   6.80000019, 0.0666666701
   1831,   6.80000019,   0.13333334
   1832,   6.80000019,  0.200000003
   1833,   6.80000019,  0.266666681
   1834,   6.80000019,  0.333333343
   1835,   6.69999981, 0.0666666701
   1836,   6.69999981,   0.13333334
   1837,   6.69999981,  0.200000003
   1838,   6.69999981,  0.266666681
   1839,   6.69999981,  0.333333343
   1840,    6.5999999, 0.0666666701
   1841,    6.5999999,   0.13333334
   1842,    6.5999999,  0.200000003
   1843,    6.5999999,  0.266666681
   1844,    6.5999999,  0.333333343
   1845,          6.5, 0.0666666701
   1846,          6.5,   0.13333334
   1847,          6.5,  0.200000003
   1848,          6.5,  0.266666681
   1849,          6.5,  0.333333343
   1850,    6.4000001, 0.0666666701
   1851,    6.4000001,   0.13333334
   1852,    6.4000001,  0.200000003
   1853,    6.4000001,  0.266666681
   1854,    6.4000001,  0.333333343
   1855,   6.30000019, 0.0666666701
   1856,   6.30000019,   0.13333334
   1857,   6.30000019,  0.200000003
   1858,   6.30000019,  0.266666681
   1859,   6.30000019,  0.333333343
   1860,   6.19999981, 0.0666666701
   1861,   6.19999981,   0.13333334
   1862,   6.19999981,  0.200000003
   1863,   6.19999981,  0.266666681
   1864,   6.19999981,  0.333333343
   1865,    6.0999999, 0.0666666701
   1866,    6.0999999,   0.13333334
   1867,    6.0999999,  0.200000003
   1868,    6.0999999,  0.266666681
   1869,    6.0999999,  0.333333343
   1870,           6., 0.0666666701
   1871,           6.,   0.13333334
   1872,           6.,  0.200000003
   1873,           6.,  0.266666681
   1874,           6.,  0.333333343
   1875,    5.9000001, 0.0666666701
   1876,    5.9000001,   0.13333334
   1877,    5.9000001,  0.200000003
   1878,    5.9000001,  0.266666681
   1879,    5.9000001,  0.333333343
   1880,   5.80000019, 0.0666666701
   1881,   5.80000019,   0.13333334
   1882,   5.80000019,  0.200000003
   1883,   5.80000019,  0.266666681
   1884,   5.80000019,  0.333333343
   1885,   5.69999981, 0.0666666701
   1886,   5.69999981,   0.13333334
   1887,   5.69999981,  0.200000003
   1888,   5.69999981,  0.266666681
   1889,   5.69999981,  0.333333343
   1890,    5.5999999, 0.0666666701
   1891,    5.5999999,   0.13333334
   1892,    5.5999999,  0.200000003
   1893,    5.5999999,  0.266666681
   1894,    5.5999999,  0.333333343
   1895,          5.5, 0.0666666701
   1896,          5.5,   0.13333334
   1897,          5.5,  0.200000003
   1898,          5.5,  0.266666681
   1899,          5.5,  0.333333343
   1900,    5.4000001, 0.0666666701
   1901,    5.4000001,   0.13333334
   1902,    5.4000001,  0.200000003
   1903,    5.4000001,  0.266666681
   1904,    5.4000001,  0.333333343
   1905,   5.30000019, 0.0666666701
   1906,   5.30000019,   0.13333334
   1907,   5.30000019,  0.200000003
   1908,   5.30000019,  0.266666681
   1909,   5.30000019,  0.333333343
   1910,   5.19999981, 0.0666666701
   1911,   5.19999981,   0.13333334
   1912,   5.19999981,  0.200000003
   1913,   5.19999981,  0.266666681
   1914,   5.19999981,  0.333333343
   1915,    5.0999999, 0.0666666701
   1916,    5.0999999,   0.13333334
   1917,    5.0999999,  0.200000003
   1918,    5.0999999,  0.266666681
   1919,    5.0999999,  0.333333343
   1920,           5., 0.0666666701
   1921,           5.,   0.13333334
   1922,           5.,  0.200000003
   1923,           5.,  0.266666681
   1924,           5.,  0.333333343
   1925,    4.9000001, 0.0666666701
   1926,    4.9000001,   0.13333334
   1927,    4.9000001,  0.200000003
   1928,    4.9000001,  0.266666681
   1929,    4.9000001,  0.333333343
   1930,   4.80000019, 0.0666666701
   1931,   4.80000019,   0.13333334
   1932,   4.80000019,  0.200000003
   1933,   4.80000019,  0.266666681
   1934,   4.80000019,  0.333333343
   1935,   4.69999981, 0.0666666701
   1936,   4.69999981,   0.13333334
   1937,   4.69999981,  0.200000003
   1938,   4.69999981,  0.266666681
   1939,   4.69999981,  0.333333343
   1940,    4.5999999, 0.0666666701
   1941,    4.5999999,   0.13333334
   1942,    4.5999999,  0.200000003
   1943,    4.5999999,  0.266666681
   1944,    4.5999999,  0.333333343
   1945,          4.5, 0.0666666701
   1946,          4.5,   0.13333334
   1947,          4.5,  0.200000003
   1948,          4.5,  0.266666681
   1949,          4.5,  0.333333343
   1950,    4.4000001, 0.0666666701
   1951,    4.4000001,   0.13333334
   1952,    4.4000001,  0.200000003
   1953,    4.4000001,  0.266666681
   1954,    4.4000001,  0.333333343
   1955,   4.30000019, 0.0666666701
   1956,   4.30000019,   0.13333334
   1957,   4.30000019,  0.200000003
   1958,   4.30000019,  0.266666681
   1959,   4.30000019,  0.333333343
   1960,   4.19999981, 0.0666666701
   1961,   4.19999981,   0.13333334
   1962,   4.19999981,  0.200000003
   1963,   4.19999981,  0.266666681
   1964,   4.19999981,  0.333333343
   1965,    4.0999999, 0.0666666701
   1966,    4.0999999,   0.13333334
   1967,    4.0999999,  0.200000003
   1968,    4.0999999,  0.266666681
   1969,    4.0999999,  0.333333343
   1970,           4., 0.0666666701
   1971,           4.,   0.13333334
   1972,           4.,  0.200000003
   1973,           4.,  0.266666681
   1974,           4.,  0.333333343
   1975,    3.9000001, 0.0666666701
   1976,    3.9000001,   0.13333334
   1977,    3.9000001,  0.200000003
   1978,    3.9000001,  0.266666681
   1979,    3.9000001,  0.333333343
   1980,   3.79999995, 0.0666666701
   1981,   3.79999995,   0.13333334
   1982,   3.79999995,  0.200000003
   1983,   3.79999995,  0.266666681
   1984,   3.79999995,  0.333333343
   1985,   3.70000005, 0.0666666701
   1986,   3.70000005,   0.13333334
   1987,   3.70000005,  0.200000003
   1988,   3.70000005,  0.266666681
   1989,   3.70000005,  0.333333343
   1990,    3.5999999, 0.0666666701
   1991,    3.5999999,   0.13333334
   1992,    3.5999999,  0.200000003
   1993,    3.5999999,  0.266666681
   1994,    3.5999999,  0.333333343
   1995,          3.5, 0.0666666701
   1996,          3.5,   0.13333334
   1997,          3.5,  0.200000003
   1998,          3.5,  0.266666681
   1999,          3.5,  0.333333343
   2000,    3.4000001, 0.0666666701
   2001,    3.4000001,   0.13333334
   2002,    3.4000001,  0.200000003
   2003,    3.4000001,  0.266666681
   2004,    3.4000001,  0.333333343
   2005,   3.29999995, 0.0666666701
   2006,   3.29999995,   0.13333334
   2007,   3.29999995,  0.200000003
   2008,   3.29999995,  0.266666681
   2009,   3.29999995,  0.333333343
   2010,   3.20000005, 0.0666666701
   2011,   3.20000005,   0.13333334
   2012,   3.20000005,  0.200000003
   2013,   3.20000005,  0.266666681
   2014,   3.20000005,  0.333333343
   2015,    3.0999999, 0.0666666701
   2016,    3.0999999,   0.13333334
   2017,    3.0999999,  0.200000003
   2018,    3.0999999,  0.266666681
   2019,    3.0999999,  0.333333343
   2020,           3., 0.0666666701
   2021,           3.,   0.13333334
   2022,           3.,  0.200000003
   2023,           3.,  0.266666681
   2024,           3.,  0.333333343
   2025,    2.9000001, 0.0666666701
   2026,    2.9000001,   0.13333334
   2027,    2.9000001,  0.200000003
   2028,    2.9000001,  0.266666681
   2029,    2.9000001,  0.333333343
   2030,   2.79999995, 0.0666666701
   2031,   2.79999995,   0.13333334
   2032,   2.79999995,  0.200000003
   2033,   2.79999995,  0.266666681
   2034,   2.79999995,  0.333333343
   2035,   2.70000005, 0.0666666701
   2036,   2.70000005,   0.13333334
   2037,   2.70000005,  0.200000003
   2038,   2.70000005,  0.266666681
   2039,   2.70000005,  0.333333343
   2040,    2.5999999, 0.0666666701
   2041,    2.5999999,   0.13333334
   2042,    2.5999999,  0.200000003
   2043,    2.5999999,  0.266666681
   2044,    2.5999999,  0.333333343
   2045,          2.5, 0.0666666701
   2046,          2.5,   0.13333334
   2047,          2.5,  0.200000003
   2048,          2.5,  0.266666681
   2049,          2.5,  0.333333343
   2050,    2.4000001, 0.0666666701
   2051,    2.4000001,   0.13333334
   2052,    2.4000001,  0.200000003
   2053,    2.4000001,  0.266666681
   2054,    2.4000001,  0.333333343
   2055,   2.29999995, 0.0666666701
   2056,   2.29999995,   0.13333334
   2057,   2.29999995,  0.200000003
   2058,   2.29999995,  0.266666681
   2059,   2.29999995,  0.333333343
   2060,   2.20000005, 0.0666666701
   2061,   2.20000005,   0.13333334
   2062,   2.20000005,  0.200000003
   2063,   2.20000005,  0.266666681
   2064,   2.20000005,  0.333333343
   2065,    2.0999999, 0.0666666701
   2066,    2.0999999,   0.13333334
   2067,    2.0999999,  0.200000003
   2068,    2.0999999,  0.266666681
   2069,    2.0999999,  0.333333343
   2070,           2., 0.0666666701
   2071,           2.,   0.13333334
   2072,           2.,  0.200000003
   2073,           2.,  0.266666681
   2074,           2.,  0.333333343
   2075,   1.89999998, 0.0666666701
   2076,   1.89999998,   0.13333334
   2077,   1.89999998,  0.200000003
   2078,   1.89999998,  0.266666681
   2079,   1.89999998,  0.333333343
   2080,   1.79999995, 0.0666666701
   2081,   1.79999995,   0.13333334
   2082,   1.79999995,  0.200000003
   2083,   1.79999995,  0.266666681
   2084,   1.79999995,  0.333333343
   2085,   1.70000005, 0.0666666701
   2086,   1.70000005,   0.13333334
   2087,   1.70000005,  0.200000003
   2088,   1.70000005,  0.266666681
   2089,   1.70000005,  0.333333343
   2090,   1.60000002, 0.0666666701
   2091,   1.60000002,   0.13333334
   2092,   1.60000002,  0.200000003
   2093,   1.60000002,  0.266666681
   2094,   1.60000002,  0.333333343
   2095,          1.5, 0.0666666701
   2096,          1.5,   0.13333334
   2097,          1.5,  0.200000003
   2098,          1.5,  0.266666681
   2099,          1.5,  0.333333343
   2100,   1.39999998, 0.0666666701
   2101,   1.39999998,   0.13333334
   2102,   1.39999998,  0.200000003
   2103,   1.39999998,  0.266666681
   2104,   1.39999998,  0.333333343
   2105,   1.29999995, 0.0666666701
   2106,   1.29999995,   0.13333334
   2107,   1.29999995,  0.200000003
   2108,   1.29999995,  0.266666681
   2109,   1.29999995,  0.333333343
   2110,   1.20000005, 0.0666666701
   2111,   1.20000005,   0.13333334
   2112,   1.20000005,  0.200000003
   2113,   1.20000005,  0.266666681
   2114,   1.20000005,  0.333333343
   2115,   1.10000002, 0.0666666701
   2116,   1.10000002,   0.13333334
   2117,   1.10000002,  0.200000003
   2118,   1.10000002,  0.266666681
   2119,   1.10000002,  0.333333343
   2120,           1., 0.0666666701
   2121,           1.,   0.13333334
   2122,           1.,  0.200000003
   2123,           1.,  0.266666681
   2124,           1.,  0.333333343
   2125,  0.899999976, 0.0666666701
   2126,  0.899999976,   0.13333334
   2127,  0.899999976,  0.200000003
   2128,  0.899999976,  0.266666681
   2129,  0.899999976,  0.333333343
   2130,  0.800000012, 0.0666666701
   2131,  0.800000012,   0.13333334
   2132,  0.800000012,  0.200000003
   2133,  0.800000012,  0.266666681
   2134,  0.800000012,  0.333333343
   2135,  0.699999988, 0.0666666701
   2136,  0.699999988,   0.13333334
   2137,  0.699999988,  0.200000003
   2138,  0.699999988,  0.266666681
   2139,  0.699999988,  0.333333343
   2140,  0.600000024, 0.0666666701
   2141,  0.600000024,   0.13333334
   2142,  0.600000024,  0.200000003
   2143,  0.600000024,  0.266666681
   2144,  0.600000024,  0.333333343
   2145,          0.5, 0.0666666701
   2146,          0.5,   0.13333334
   2147,          0.5,  0.200000003
   2148,          0.5,  0.266666681
   2149,          0.5,  0.333333343
   2150,  0.400000006, 0.0666666701
   2151,  0.400000006,   0.13333334
   2152,  0.400000006,  0.200000003
   2153,  0.400000006,  0.266666681
   2154,  0.400000006,  0.333333343
   2155,  0.300000012, 0.0666666701
   2156,  0.300000012,   0.13333334
   2157,  0.300000012,  0.200000003
   2158,  0.300000012,  0.266666681
   2159,  0.300000012,  0.333333343
   2160,  0.200000003, 0.0666666701
   2161,  0.200000003,   0.13333334
   2162,  0.200000003,  0.200000003
   2163,  0.200000003,  0.266666681
   2164,  0.200000003,  0.333333343
   2165,  0.100000001, 0.0666666701
   2166,  0.100000001,   0.13333334
   2167,  0.100000001,  0.200000003
   2168,  0.100000001,  0.266666681
   2169,  0.100000001,  0.333333343
   2170,           0., 0.0666666701
   2171,           0.,   0.13333334
   2172,           0.,  0.200000003
   2173,           0.,  0.266666681
   2174,           0.,  0.333333343
   2175, -0.100000001, 0.0666666701
   2176, -0.100000001,   0.13333334
   2177, -0.100000001,  0.200000003
   2178, -0.100000001,  0.266666681
   2179, -0.100000001,  0.333333343
   2180, -0.200000003, 0.0666666701
   2181, -0.200000003,   0.13333334
   2182, -0.200000003,  0.200000003
   2183, -0.200000003,  0.266666681
   2184, -0.200000003,  0.333333343
   2185, -0.300000012, 0.0666666701
   2186, -0.300000012,   0.13333334
   2187, -0.300000012,  0.200000003
   2188, -0.300000012,  0.266666681
   2189, -0.300000012,  0.333333343
   2190, -0.400000006, 0.0666666701
   2191, -0.400000006,   0.13333334
   2192, -0.400000006,  0.200000003
   2193, -0.400000006,  0.266666681
   2194, -0.400000006,  0.333333343
   2195,         -0.5, 0.0666666701
   2196,         -0.5,   0.13333334
   2197,         -0.5,  0.200000003
   2198,         -0.5,  0.266666681
   2199,         -0.5,  0.333333343
   2200, -0.600000024, 0.0666666701
   2201, -0.600000024,   0.13333334
   2202, -0.600000024,  0.200000003
   2203, -0.600000024,  0.266666681
   2204, -0.600000024,  0.333333343
   2205, -0.699999988, 0.0666666701
   2206, -0.699999988,   0.13333334
   2207, -0.699999988,  0.200000003
   2208, -0.699999988,  0.266666681
   2209, -0.699999988,  0.333333343
   2210, -0.800000012, 0.0666666701
   2211, -0.800000012,   0.13333334
   2212, -0.800000012,  0.200000003
   2213, -0.800000012,  0.266666681
   2214, -0.800000012,  0.333333343
   2215, -0.899999976, 0.0666666701
   2216, -0.899999976,   0.13333334
   2217, -0.899999976,  0.200000003
   2218, -0.899999976,  0.266666681
   2219, -0.899999976,  0.333333343
   2220,          -1., 0.0666666701
   2221,          -1.,   0.13333334
   2222,          -1.,  0.200000003
   2223,          -1.,  0.266666681
   2224,          -1.,  0.333333343
   2225,  -1.10000002, 0.0666666701
   2226,  -1.10000002,   0.13333334
   2227,  -1.10000002,  0.200000003
   2228,  -1.10000002,  0.266666681
   2229,  -1.10000002,  0.333333343
   2230,  -1.20000005, 0.0666666701
   2231,  -1.20000005,   0.13333334
   2232,  -1.20000005,  0.200000003
   2233,  -1.20000005,  0.266666681
   2234,  -1.20000005,  0.333333343
   2235,  -1.29999995, 0.0666666701
   2236,  -1.29999995,   0.13333334
   2237,  -1.29999995,  0.200000003
   2238,  -1.29999995,  0.266666681
   2239,  -1.29999995,  0.333333343
   2240,  -1.39999998, 0.0666666701
   2241,  -1.39999998,   0.13333334
   2242,  -1.39999998,  0.200000003
   2243,  -1.39999998,  0.266666681
   2244,  -1.39999998,  0.333333343
   2245,         -1.5, 0.0666666701
   2246,         -1.5,   0.13333334
   2247,         -1.5,  0.200000003
   2248,         -1.5,  0.266666681
   2249,         -1.5,  0.333333343
   2250,  -1.60000002, 0.0666666701
   2251,  -1.60000002,   0.13333334
   2252,  -1.60000002,  0.200000003
   2253,  -1.60000002,  0.266666681
   2254,  -1.60000002,  0.333333343
   2255,  -1.70000005, 0.0666666701
   2256,  -1.70000005,   0.13333334
   2257,  -1.70000005,  0.200000003
   2258,  -1.70000005,  0.266666681
   2259,  -1.70000005,  0.333333343
   2260,  -1.79999995, 0.0666666701
   2261,  -1.79999995,   0.13333334
   2262,  -1.79999995,  0.200000003
   2263,  -1.79999995,  0.266666681
   2264,  -1.79999995,  0.333333343
   2265,  -1.89999998, 0.0666666701
   2266,  -1.89999998,   0.13333334
   2267,  -1.89999998,  0.200000003
   2268,  -1.89999998,  0.266666681
   2269,  -1.89999998,  0.333333343
   2270,          -2., 0.0666666701
   2271,          -2.,   0.13333334
   2272,          -2.,  0.200000003
   2273,          -2.,  0.266666681
   2274,          -2.,  0.333333343
   2275,   -2.0999999, 0.0666666701
   2276,   -2.0999999,   0.13333334
   2277,   -2.0999999,  0.200000003
   2278,   -2.0999999,  0.266666681
   2279,   -2.0999999,  0.333333343
   2280,  -2.20000005, 0.0666666701
   2281,  -2.20000005,   0.13333334
   2282,  -2.20000005,  0.200000003
   2283,  -2.20000005,  0.266666681
   2284,  -2.20000005,  0.333333343
   2285,  -2.29999995, 0.0666666701
   2286,  -2.29999995,   0.13333334
   2287,  -2.29999995,  0.200000003
   2288,  -2.29999995,  0.266666681
   2289,  -2.29999995,  0.333333343
   2290,   -2.4000001, 0.0666666701
   2291,   -2.4000001,   0.13333334
   2292,   -2.4000001,  0.200000003
   2293,   -2.4000001,  0.266666681
   2294,   -2.4000001,  0.333333343
   2295,         -2.5, 0.0666666701
   2296,         -2.5,   0.13333334
   2297,         -2.5,  0.200000003
   2298,         -2.5,  0.266666681
   2299,         -2.5,  0.333333343
   2300,   -2.5999999, 0.0666666701
   2301,   -2.5999999,   0.13333334
   2302,   -2.5999999,  0.200000003
   2303,   -2.5999999,  0.266666681
   2304,   -2.5999999,  0.333333343
   2305,  -2.70000005, 0.0666666701
   2306,  -2.70000005,   0.13333334
   2307,  -2.70000005,  0.200000003
   2308,  -2.70000005,  0.266666681
   2309,  -2.70000005,  0.333333343
   2310,  -2.79999995, 0.0666666701
   2311,  -2.79999995,   0.13333334
   2312,  -2.79999995,  0.200000003
   2313,  -2.79999995,  0.266666681
   2314,  -2.79999995,  0.333333343
   2315,   -2.9000001, 0.0666666701
   2316,   -2.9000001,   0.13333334
   2317,   -2.9000001,  0.200000003
   2318,   -2.9000001,  0.266666681
   2319,   -2.9000001,  0.333333343
   2320,          -3., 0.0666666701
   2321,          -3.,   0.13333334
   2322,          -3.,  0.200000003
   2323,          -3.,  0.266666681
   2324,          -3.,  0.333333343
   2325,   -3.0999999, 0.0666666701
   2326,   -3.0999999,   0.13333334
   2327,   -3.0999999,  0.200000003
   2328,   -3.0999999,  0.266666681
   2329,   -3.0999999,  0.333333343
   2330,  -3.20000005, 0.0666666701
   2331,  -3.20000005,   0.13333334
   2332,  -3.20000005,  0.200000003
   2333,  -3.20000005,  0.266666681
   2334,  -3.20000005,  0.333333343
   2335,  -3.29999995, 0.0666666701
   2336,  -3.29999995,   0.13333334
   2337,  -3.29999995,  0.200000003
   2338,  -3.29999995,  0.266666681
   2339,  -3.29999995,  0.333333343
   2340,   -3.4000001, 0.0666666701
   2341,   -3.4000001,   0.13333334
   2342,   -3.4000001,  0.200000003
   2343,   -3.4000001,  0.266666681
   2344,   -3.4000001,  0.333333343
   2345,         -3.5, 0.0666666701
   2346,         -3.5,   0.13333334
   2347,         -3.5,  0.200000003
   2348,         -3.5,  0.266666681
   2349,         -3.5,  0.333333343
   2350,   -3.5999999, 0.0666666701
   2351,   -3.5999999,   0.13333334
   2352,   -3.5999999,  0.200000003
   2353,   -3.5999999,  0.266666681
   2354,   -3.5999999,  0.333333343
   2355,  -3.70000005, 0.0666666701
   2356,  -3.70000005,   0.13333334
   2357,  -3.70000005,  0.200000003
   2358,  -3.70000005,  0.266666681
   2359,  -3.70000005,  0.333333343
   2360,  -3.79999995, 0.0666666701
   2361,  -3.79999995,   0.13333334
   2362,  -3.79999995,  0.200000003
   2363,  -3.79999995,  0.266666681
   2364,  -3.79999995,  0.333333343
   2365,   -3.9000001, 0.0666666701
   2366,   -3.9000001,   0.13333334
   2367,   -3.9000001,  0.200000003
   2368,   -3.9000001,  0.266666681
   2369,   -3.9000001,  0.333333343
   2370,          -4., 0.0666666701
   2371,          -4.,   0.13333334
   2372,          -4.,  0.200000003
   2373,          -4.,  0.266666681
   2374,          -4.,  0.333333343
   2375,   -4.0999999, 0.0666666701
   2376,   -4.0999999,   0.13333334
   2377,   -4.0999999,  0.200000003
   2378,   -4.0999999,  0.266666681
   2379,   -4.0999999,  0.333333343
   2380,  -4.19999981, 0.0666666701
   2381,  -4.19999981,   0.13333334
   2382,  -4.19999981,  0.200000003
   2383,  -4.19999981,  0.266666681
   2384,  -4.19999981,  0.333333343
   2385,  -4.30000019, 0.0666666701
   2386,  -4.30000019,   0.13333334
   2387,  -4.30000019,  0.200000003
   2388,  -4.30000019,  0.266666681
   2389,  -4.30000019,  0.333333343
   2390,   -4.4000001, 0.0666666701
   2391,   -4.4000001,   0.13333334
   2392,   -4.4000001,  0.200000003
   2393,   -4.4000001,  0.266666681
   2394,   -4.4000001,  0.333333343
   2395,         -4.5, 0.0666666701
   2396,         -4.5,   0.13333334
   2397,         -4.5,  0.200000003
   2398,         -4.5,  0.266666681
   2399,         -4.5,  0.333333343
   2400,   -4.5999999, 0.0666666701
   2401,   -4.5999999,   0.13333334
   2402,   -4.5999999,  0.200000003
   2403,   -4.5999999,  0.266666681
   2404,   -4.5999999,  0.333333343
   2405,  -4.69999981, 0.0666666701
   2406,  -4.69999981,   0.13333334
   2407,  -4.69999981,  0.200000003
   2408,  -4.69999981,  0.266666681
   2409,  -4.69999981,  0.333333343
   2410,  -4.80000019, 0.0666666701
   2411,  -4.80000019,   0.13333334
   2412,  -4.80000019,  0.200000003
   2413,  -4.80000019,  0.266666681
   2414,  -4.80000019,  0.333333343
   2415,   -4.9000001, 0.0666666701
   2416,   -4.9000001,   0.13333334
   2417,   -4.9000001,  0.200000003
   2418,   -4.9000001,  0.266666681
   2419,   -4.9000001,  0.333333343
   2420,          -5., 0.0666666701
   2421,          -5.,   0.13333334
   2422,          -5.,  0.200000003
   2423,          -5.,  0.266666681
   2424,          -5.,  0.333333343
   2425,   -5.0999999, 0.0666666701
   2426,   -5.0999999,   0.13333334
   2427,   -5.0999999,  0.200000003
   2428,   -5.0999999,  0.266666681
   2429,   -5.0999999,  0.333333343
   2430,  -5.19999981, 0.0666666701
   2431,  -5.19999981,   0.13333334
   2432,  -5.19999981,  0.200000003
   2433,  -5.19999981,  0.266666681
   2434,  -5.19999981,  0.333333343
   2435,  -5.30000019, 0.0666666701
   2436,  -5.30000019,   0.13333334
   2437,  -5.30000019,  0.200000003
   2438,  -5.30000019,  0.266666681
   2439,  -5.30000019,  0.333333343
   2440,   -5.4000001, 0.0666666701
   2441,   -5.4000001,   0.13333334
   2442,   -5.4000001,  0.200000003
   2443,   -5.4000001,  0.266666681
   2444,   -5.4000001,  0.333333343
   2445,         -5.5, 0.0666666701
   2446,         -5.5,   0.13333334
   2447,         -5.5,  0.200000003
   2448,         -5.5,  0.266666681
   2449,         -5.5,  0.333333343
   2450,   -5.5999999, 0.0666666701
   2451,   -5.5999999,   0.13333334
   2452,   -5.5999999,  0.200000003
   2453,   -5.5999999,  0.266666681
   2454,   -5.5999999,  0.333333343
   2455,  -5.69999981, 0.0666666701
   2456,  -5.69999981,   0.13333334
   2457,  -5.69999981,  0.200000003
   2458,  -5.69999981,  0.266666681
   2459,  -5.69999981,  0.333333343
   2460,  -5.80000019, 0.0666666701
   2461,  -5.80000019,   0.13333334
   2462,  -5.80000019,  0.200000003
   2463,  -5.80000019,  0.266666681
   2464,  -5.80000019,  0.333333343
   2465,   -5.9000001, 0.0666666701
   2466,   -5.9000001,   0.13333334
   2467,   -5.9000001,  0.200000003
   2468,   -5.9000001,  0.266666681
   2469,   -5.9000001,  0.333333343
   2470,          -6., 0.0666666701
   2471,          -6.,   0.13333334
   2472,          -6.,  0.200000003
   2473,          -6.,  0.266666681
   2474,          -6.,  0.333333343
   2475,   -6.0999999, 0.0666666701
   2476,   -6.0999999,   0.13333334
   2477,   -6.0999999,  0.200000003
   2478,   -6.0999999,  0.266666681
   2479,   -6.0999999,  0.333333343
   2480,  -6.19999981, 0.0666666701
   2481,  -6.19999981,   0.13333334
   2482,  -6.19999981,  0.200000003
   2483,  -6.19999981,  0.266666681
   2484,  -6.19999981,  0.333333343
   2485,  -6.30000019, 0.0666666701
   2486,  -6.30000019,   0.13333334
   2487,  -6.30000019,  0.200000003
   2488,  -6.30000019,  0.266666681
   2489,  -6.30000019,  0.333333343
   2490,   -6.4000001, 0.0666666701
   2491,   -6.4000001,   0.13333334
   2492,   -6.4000001,  0.200000003
   2493,   -6.4000001,  0.266666681
   2494,   -6.4000001,  0.333333343
   2495,         -6.5, 0.0666666701
   2496,         -6.5,   0.13333334
   2497,         -6.5,  0.200000003
   2498,         -6.5,  0.266666681
   2499,         -6.5,  0.333333343
   2500,   -6.5999999, 0.0666666701
   2501,   -6.5999999,   0.13333334
   2502,   -6.5999999,  0.200000003
   2503,   -6.5999999,  0.266666681
   2504,   -6.5999999,  0.333333343
   2505,  -6.69999981, 0.0666666701
   2506,  -6.69999981,   0.13333334
   2507,  -6.69999981,  0.200000003
   2508,  -6.69999981,  0.266666681
   2509,  -6.69999981,  0.333333343
   2510,  -6.80000019, 0.0666666701
   2511,  -6.80000019,   0.13333334
   2512,  -6.80000019,  0.200000003
   2513,  -6.80000019,  0.266666681
   2514,  -6.80000019,  0.333333343
   2515,   -6.9000001, 0.0666666701
   2516,   -6.9000001,   0.13333334
   2517,   -6.9000001,  0.200000003
   2518,   -6.9000001,  0.266666681
   2519,   -6.9000001,  0.333333343
   2520,          -7., 0.0666666701
   2521,          -7.,   0.13333334
   2522,          -7.,  0.200000003
   2523,          -7.,  0.266666681
   2524,          -7.,  0.333333343
   2525,   -7.0999999, 0.0666666701
   2526,   -7.0999999,   0.13333334
   2527,   -7.0999999,  0.200000003
   2528,   -7.0999999,  0.266666681
   2529,   -7.0999999,  0.333333343
   2530,  -7.19999981, 0.0666666701
   2531,  -7.19999981,   0.13333334
   2532,  -7.19999981,  0.200000003
   2533,  -7.19999981,  0.266666681
   2534,  -7.19999981,  0.333333343
   2535,  -7.30000019, 0.0666666701
   2536,  -7.30000019,   0.13333334
   2537,  -7.30000019,  0.200000003
   2538,  -7.30000019,  0.266666681
   2539,  -7.30000019,  0.333333343
   2540,   -7.4000001, 0.0666666701
   2541,   -7.4000001,   0.13333334
   2542,   -7.4000001,  0.200000003
   2543,   -7.4000001,  0.266666681
   2544,   -7.4000001,  0.333333343
   2545,         -7.5, 0.0666666701
   2546,         -7.5,   0.13333334
   2547,         -7.5,  0.200000003
   2548,         -7.5,  0.266666681
   2549,         -7.5,  0.333333343
   2550,   -7.5999999, 0.0666666701
   2551,   -7.5999999,   0.13333334
   2552,   -7.5999999,  0.200000003
   2553,   -7.5999999,  0.266666681
   2554,   -7.5999999,  0.333333343
   2555,  -7.69999981, 0.0666666701
   2556,  -7.69999981,   0.13333334
   2557,  -7.69999981,  0.200000003
   2558,  -7.69999981,  0.266666681
   2559,  -7.69999981,  0.333333343
   2560,  -7.80000019, 0.0666666701
   2561,  -7.80000019,   0.13333334
   2562,  -7.80000019,  0.200000003
   2563,  -7.80000019,  0.266666681
   2564,  -7.80000019,  0.333333343
   2565,   -7.9000001, 0.0666666701
   2566,   -7.9000001,   0.13333334
   2567,   -7.9000001,  0.200000003
   2568,   -7.9000001,  0.266666681
   2569,   -7.9000001,  0.333333343
   2570,          -8., 0.0666666701
   2571,          -8.,   0.13333334
   2572,          -8.,  0.200000003
   2573,          -8.,  0.266666681
   2574,          -8.,  0.333333343
   2575,  -8.10000038, 0.0666666701
   2576,  -8.10000038,   0.13333334
   2577,  -8.10000038,  0.200000003
   2578,  -8.10000038,  0.266666681
   2579,  -8.10000038,  0.333333343
   2580,  -8.19999981, 0.0666666701
   2581,  -8.19999981,   0.13333334
   2582,  -8.19999981,  0.200000003
   2583,  -8.19999981,  0.266666681
   2584,  -8.19999981,  0.333333343
   2585,  -8.30000019, 0.0666666701
   2586,  -8.30000019,   0.13333334
   2587,  -8.30000019,  0.200000003
   2588,  -8.30000019,  0.266666681
   2589,  -8.30000019,  0.333333343
   2590,  -8.39999962, 0.0666666701
   2591,  -8.39999962,   0.13333334
   2592,  -8.39999962,  0.200000003
   2593,  -8.39999962,  0.266666681
   2594,  -8.39999962,  0.333333343
   2595,         -8.5, 0.0666666701
   2596,         -8.5,   0.13333334
   2597,         -8.5,  0.200000003
   2598,         -8.5,  0.266666681
   2599,         -8.5,  0.333333343
   2600,  -8.60000038, 0.0666666701
   2601,  -8.60000038,   0.13333334
   2602,  -8.60000038,  0.200000003
   2603,  -8.60000038,  0.266666681
   2604,  -8.60000038,  0.333333343
   2605,  -8.69999981, 0.0666666701
   2606,  -8.69999981,   0.13333334
   2607,  -8.69999981,  0.200000003
   2608,  -8.69999981,  0.266666681
   2609,  -8.69999981,  0.333333343
   2610,  -8.80000019, 0.0666666701
   2611,  -8.80000019,   0.13333334
   2612,  -8.80000019,  0.200000003
   2613,  -8.80000019,  0.266666681
   2614,  -8.80000019,  0.333333343
   2615,  -8.89999962, 0.0666666701
   2616,  -8.89999962,   0.13333334
   2617,  -8.89999962,  0.200000003
   2618,  -8.89999962,  0.266666681
   2619,  -8.89999962,  0.333333343
   2620,          -9., 0.0666666701
   2621,          -9.,   0.13333334
   2622,          -9.,  0.200000003
   2623,          -9.,  0.266666681
   2624,          -9.,  0.333333343
   2625,  -9.10000038, 0.0666666701
   2626,  -9.10000038,   0.13333334
   2627,  -9.10000038,  0.200000003
   2628,  -9.10000038,  0.266666681
   2629,  -9.10000038,  0.333333343
   2630,  -9.19999981, 0.0666666701
   2631,  -9.19999981,   0.13333334
   2632,  -9.19999981,  0.200000003
   2633,  -9.19999981,  0.266666681
   2634,  -9.19999981,  0.333333343
   2635,  -9.30000019, 0.0666666701
   2636,  -9.30000019,   0.13333334
   2637,  -9.30000019,  0.200000003
   2638,  -9.30000019,  0.266666681
   2639,  -9.30000019,  0.333333343
   2640,  -9.39999962, 0.0666666701
   2641,  -9.39999962,   0.13333334
   2642,  -9.39999962,  0.200000003
   2643,  -9.39999962,  0.266666681
   2644,  -9.39999962,  0.333333343
   2645,         -9.5, 0.0666666701
   2646,         -9.5,   0.13333334
   2647,         -9.5,  0.200000003
   2648,         -9.5,  0.266666681
   2649,         -9.5,  0.333333343
   2650,  -9.60000038, 0.0666666701
   2651,  -9.60000038,   0.13333334
   2652,  -9.60000038,  0.200000003
   2653,  -9.60000038,  0.266666681
   2654,  -9.60000038,  0.333333343
   2655,  -9.69999981, 0.0666666701
   2656,  -9.69999981,   0.13333334
   2657,  -9.69999981,  0.200000003
   2658,  -9.69999981,  0.266666681
   2659,  -9.69999981,  0.333333343
   2660,  -9.80000019, 0.0666666701
   2661,  -9.80000019,   0.13333334
   2662,  -9.80000019,  0.200000003
   2663,  -9.80000019,  0.266666681
   2664,  -9.80000019,  0.333333343
   2665,  -9.89999962, 0.0666666701
   2666,  -9.89999962,   0.13333334
   2667,  -9.89999962,  0.200000003
   2668,  -9.89999962,  0.266666681
   2669,  -9.89999962,  0.333333343
   2670,         -10., 0.0666666701
   2671,         -10.,   0.13333334
   2672,         -10.,  0.200000003
   2673,         -10.,  0.266666681
   2674,         -10.,  0.333333343
   2675,  -10.1000004, 0.0666666701
   2676,  -10.1000004,   0.13333334
   2677,  -10.1000004,  0.200000003
   2678,  -10.1000004,  0.266666681
   2679,  -10.1000004,  0.333333343
   2680,  -10.1999998, 0.0666666701
   2681,  -10.1999998,   0.13333334
   2682,  -10.1999998,  0.200000003
   2683,  -10.1999998,  0.266666681
   2684,  -10.1999998,  0.333333343
   2685,  -10.3000002, 0.0666666701
   2686,  -10.3000002,   0.13333334
   2687,  -10.3000002,  0.200000003
   2688,  -10.3000002,  0.266666681
   2689,  -10.3000002,  0.333333343
   2690,  -10.3999996, 0.0666666701
   2691,  -10.3999996,   0.13333334
   2692,  -10.3999996,  0.200000003
   2693,  -10.3999996,  0.266666681
   2694,  -10.3999996,  0.333333343
   2695,        -10.5, 0.0666666701
   2696,        -10.5,   0.13333334
   2697,        -10.5,  0.200000003
   2698,        -10.5,  0.266666681
   2699,        -10.5,  0.333333343
   2700,  -10.6000004, 0.0666666701
   2701,  -10.6000004,   0.13333334
   2702,  -10.6000004,  0.200000003
   2703,  -10.6000004,  0.266666681
   2704,  -10.6000004,  0.333333343
   2705,  -10.6999998, 0.0666666701
   2706,  -10.6999998,   0.13333334
   2707,  -10.6999998,  0.200000003
   2708,  -10.6999998,  0.266666681
   2709,  -10.6999998,  0.333333343
   2710,  -10.8000002, 0.0666666701
   2711,  -10.8000002,   0.13333334
   2712,  -10.8000002,  0.200000003
   2713,  -10.8000002,  0.266666681
   2714,  -10.8000002,  0.333333343
   2715,  -10.8999996, 0.0666666701
   2716,  -10.8999996,   0.13333334
   2717,  -10.8999996,  0.200000003
   2718,  -10.8999996,  0.266666681
   2719,  -10.8999996,  0.333333343
   2720,         -11., 0.0666666701
   2721,         -11.,   0.13333334
   2722,         -11.,  0.200000003
   2723,         -11.,  0.266666681
   2724,         -11.,  0.333333343
   2725,  -11.1000004, 0.0666666701
   2726,  -11.1000004,   0.13333334
   2727,  -11.1000004,  0.200000003
   2728,  -11.1000004,  0.266666681
   2729,  -11.1000004,  0.333333343
   2730,  -11.1999998, 0.0666666701
   2731,  -11.1999998,   0.13333334
   2732,  -11.1999998,  0.200000003
   2733,  -11.1999998,  0.266666681
   2734,  -11.1999998,  0.333333343
   2735,  -11.3000002, 0.0666666701
   2736,  -11.3000002,   0.13333334
   2737,  -11.3000002,  0.200000003
   2738,  -11.3000002,  0.266666681
   2739,  -11.3000002,  0.333333343
   2740,  -11.3999996, 0.0666666701
   2741,  -11.3999996,   0.13333334
   2742,  -11.3999996,  0.200000003
   2743,  -11.3999996,  0.266666681
   2744,  -11.3999996,  0.333333343
   2745,        -11.5, 0.0666666701
   2746,        -11.5,   0.13333334
   2747,        -11.5,  0.200000003
   2748,        -11.5,  0.266666681
   2749,        -11.5,  0.333333343
   2750,  -11.6000004, 0.0666666701
   2751,  -11.6000004,   0.13333334
   2752,  -11.6000004,  0.200000003
   2753,  -11.6000004,  0.266666681
   2754,  -11.6000004,  0.333333343
   2755,  -11.6999998, 0.0666666701
   2756,  -11.6999998,   0.13333334
   2757,  -11.6999998,  0.200000003
   2758,  -11.6999998,  0.266666681
   2759,  -11.6999998,  0.333333343
   2760,  -11.8000002, 0.0666666701
   2761,  -11.8000002,   0.13333334
   2762,  -11.8000002,  0.200000003
   2763,  -11.8000002,  0.266666681
   2764,  -11.8000002,  0.333333343
   2765,  -11.8999996, 0.0666666701
   2766,  -11.8999996,   0.13333334
   2767,  -11.8999996,  0.200000003
   2768,  -11.8999996,  0.266666681
   2769,  -11.8999996,  0.333333343
   2770,         -12., 0.0666666701
   2771,         -12.,   0.13333334
   2772,         -12.,  0.200000003
   2773,         -12.,  0.266666681
   2774,         -12.,  0.333333343
   2775,  -12.1000004, 0.0666666701
   2776,  -12.1000004,   0.13333334
   2777,  -12.1000004,  0.200000003
   2778,  -12.1000004,  0.266666681
   2779,  -12.1000004,  0.333333343
   2780,  -12.1999998, 0.0666666701
   2781,  -12.1999998,   0.13333334
   2782,  -12.1999998,  0.200000003
   2783,  -12.1999998,  0.266666681
   2784,  -12.1999998,  0.333333343
   2785,  -12.3000002, 0.0666666701
   2786,  -12.3000002,   0.13333334
   2787,  -12.3000002,  0.200000003
   2788,  -12.3000002,  0.266666681
   2789,  -12.3000002,  0.333333343
   2790,  -12.3999996, 0.0666666701
   2791,  -12.3999996,   0.13333334
   2792,  -12.3999996,  0.200000003
   2793,  -12.3999996,  0.266666681
   2794,  -12.3999996,  0.333333343
   2795,        -12.5, 0.0666666701
   2796,        -12.5,   0.13333334
   2797,        -12.5,  0.200000003
   2798,        -12.5,  0.266666681
   2799,        -12.5,  0.333333343
   2800,  -12.6000004, 0.0666666701
   2801,  -12.6000004,   0.13333334
   2802,  -12.6000004,  0.200000003
   2803,  -12.6000004,  0.266666681
   2804,  -12.6000004,  0.333333343
   2805,  -12.6999998, 0.0666666701
   2806,  -12.6999998,   0.13333334
   2807,  -12.6999998,  0.200000003
   2808,  -12.6999998,  0.266666681
   2809,  -12.6999998,  0.333333343
   2810,  -12.8000002, 0.0666666701
   2811,  -12.8000002,   0.13333334
   2812,  -12.8000002,  0.200000003
   2813,  -12.8000002,  0.266666681
   2814,  -12.8000002,  0.333333343
   2815,  -12.8999996, 0.0666666701
   2816,  -12.8999996,   0.13333334
   2817,  -12.8999996,  0.200000003
   2818,  -12.8999996,  0.266666681
   2819,  -12.8999996,  0.333333343
   2820,         -13., 0.0666666701
   2821,         -13.,   0.13333334
   2822,         -13.,  0.200000003
   2823,         -13.,  0.266666681
   2824,         -13.,  0.333333343
   2825,  -13.1000004, 0.0666666701
   2826,  -13.1000004,   0.13333334
   2827,  -13.1000004,  0.200000003
   2828,  -13.1000004,  0.266666681
   2829,  -13.1000004,  0.333333343
   2830,  -13.1999998, 0.0666666701
   2831,  -13.1999998,   0.13333334
   2832,  -13.1999998,  0.200000003
   2833,  -13.1999998,  0.266666681
   2834,  -13.1999998,  0.333333343
   2835,  -13.3000002, 0.0666666701
   2836,  -13.3000002,   0.13333334
   2837,  -13.3000002,  0.200000003
   2838,  -13.3000002,  0.266666681
   2839,  -13.3000002,  0.333333343
   2840,  -13.3999996, 0.0666666701
   2841,  -13.3999996,   0.13333334
   2842,  -13.3999996,  0.200000003
   2843,  -13.3999996,  0.266666681
   2844,  -13.3999996,  0.333333343
   2845,        -13.5, 0.0666666701
   2846,        -13.5,   0.13333334
   2847,        -13.5,  0.200000003
   2848,        -13.5,  0.266666681
   2849,        -13.5,  0.333333343
   2850,  -13.6000004, 0.0666666701
   2851,  -13.6000004,   0.13333334
   2852,  -13.6000004,  0.200000003
   2853,  -13.6000004,  0.266666681
   2854,  -13.6000004,  0.333333343
   2855,  -13.6999998, 0.0666666701
   2856,  -13.6999998,   0.13333334
   2857,  -13.6999998,  0.200000003
   2858,  -13.6999998,  0.266666681
   2859,  -13.6999998,  0.333333343
   2860,  -13.8000002, 0.0666666701
   2861,  -13.8000002,   0.13333334
   2862,  -13.8000002,  0.200000003
   2863,  -13.8000002,  0.266666681
   2864,  -13.8000002,  0.333333343
   2865,  -13.8999996, 0.0666666701
   2866,  -13.8999996,   0.13333334
   2867,  -13.8999996,  0.200000003
   2868,  -13.8999996,  0.266666681
   2869,  -13.8999996,  0.333333343
   2870,         -14., 0.0666666701
   2871,         -14.,   0.13333334
   2872,         -14.,  0.200000003
   2873,         -14.,  0.266666681
   2874,         -14.,  0.333333343
   2875,  -14.1000004, 0.0666666701
   2876,  -14.1000004,   0.13333334
   2877,  -14.1000004,  0.200000003
   2878,  -14.1000004,  0.266666681
   2879,  -14.1000004,  0.333333343
   2880,  -14.1999998, 0.0666666701
   2881,  -14.1999998,   0.13333334
   2882,  -14.1999998,  0.200000003
   2883,  -14.1999998,  0.266666681
   2884,  -14.1999998,  0.333333343
   2885,  -14.3000002, 0.0666666701
   2886,  -14.3000002,   0.13333334
   2887,  -14.3000002,  0.200000003
   2888,  -14.3000002,  0.266666681
   2889,  -14.3000002,  0.333333343
   2890,  -14.3999996, 0.0666666701
   2891,  -14.3999996,   0.13333334
   2892,  -14.3999996,  0.200000003
   2893,  -14.3999996,  0.266666681
   2894,  -14.3999996,  0.333333343
   2895,        -14.5, 0.0666666701
   2896,        -14.5,   0.13333334
   2897,        -14.5,  0.200000003
   2898,        -14.5,  0.266666681
   2899,        -14.5,  0.333333343
   2900,  -14.6000004, 0.0666666701
   2901,  -14.6000004,   0.13333334
   2902,  -14.6000004,  0.200000003
   2903,  -14.6000004,  0.266666681
   2904,  -14.6000004,  0.333333343
   2905,  -14.6999998, 0.0666666701
   2906,  -14.6999998,   0.13333334
   2907,  -14.6999998,  0.200000003
   2908,  -14.6999998,  0.266666681
   2909,  -14.6999998,  0.333333343
   2910,  -14.8000002, 0.0666666701
   2911,  -14.8000002,   0.13333334
   2912,  -14.8000002,  0.200000003
   2913,  -14.8000002,  0.266666681
   2914,  -14.8000002,  0.333333343
   2915,  -14.8999996, 0.0666666701
   2916,  -14.8999996,   0.13333334
   2917,  -14.8999996,  0.200000003
   2918,  -14.8999996,  0.266666681
   2919,  -14.8999996,  0.333333343
   2920,         -15., 0.0666666701
   2921,         -15.,   0.13333334
   2922,         -15.,  0.200000003
   2923,         -15.,  0.266666681
   2924,         -15.,  0.333333343
   2925,  -15.1000004, 0.0666666701
   2926,  -15.1000004,   0.13333334
   2927,  -15.1000004,  0.200000003
   2928,  -15.1000004,  0.266666681
   2929,  -15.1000004,  0.333333343
   2930,  -15.1999998, 0.0666666701
   2931,  -15.1999998,   0.13333334
   2932,  -15.1999998,  0.200000003
   2933,  -15.1999998,  0.266666681
   2934,  -15.1999998,  0.333333343
   2935,  -15.3000002, 0.0666666701
   2936,  -15.3000002,   0.13333334
   2937,  -15.3000002,  0.200000003
   2938,  -15.3000002,  0.266666681
   2939,  -15.3000002,  0.333333343
   2940,  -15.3999996, 0.0666666701
   2941,  -15.3999996,   0.13333334
   2942,  -15.3999996,  0.200000003
   2943,  -15.3999996,  0.266666681
   2944,  -15.3999996,  0.333333343
   2945,        -15.5, 0.0666666701
   2946,        -15.5,   0.13333334
   2947,        -15.5,  0.200000003
   2948,        -15.5,  0.266666681
   2949,        -15.5,  0.333333343
   2950,  -15.6000004, 0.0666666701
   2951,  -15.6000004,   0.13333334
   2952,  -15.6000004,  0.200000003
   2953,  -15.6000004,  0.266666681
   2954,  -15.6000004,  0.333333343
   2955,  -15.6999998, 0.0666666701
   2956,  -15.6999998,   0.13333334
   2957,  -15.6999998,  0.200000003
   2958,  -15.6999998,  0.266666681
   2959,  -15.6999998,  0.333333343
   2960,  -15.8000002, 0.0666666701
   2961,  -15.8000002,   0.13333334
   2962,  -15.8000002,  0.200000003
   2963,  -15.8000002,  0.266666681
   2964,  -15.8000002,  0.333333343
   2965,  -15.8999996, 0.0666666701
   2966,  -15.8999996,   0.13333334
   2967,  -15.8999996,  0.200000003
   2968,  -15.8999996,  0.266666681
   2969,  -15.8999996,  0.333333343
   2970,         -16., 0.0666666701
   2971,         -16.,   0.13333334
   2972,         -16.,  0.200000003
   2973,         -16.,  0.266666681
   2974,         -16.,  0.333333343
   2975,  -16.1000004, 0.0666666701
   2976,  -16.1000004,   0.13333334
   2977,  -16.1000004,  0.200000003
   2978,  -16.1000004,  0.266666681
   2979,  -16.1000004,  0.333333343
   2980,  -16.2000008, 0.0666666701
   2981,  -16.2000008,   0.13333334
   2982,  -16.2000008,  0.200000003
   2983,  -16.2000008,  0.266666681
   2984,  -16.2000008,  0.333333343
   2985,  -16.2999992, 0.0666666701
   2986,  -16.2999992,   0.13333334
   2987,  -16.2999992,  0.200000003
   2988,  -16.2999992,  0.266666681
   2989,  -16.2999992,  0.333333343
   2990,  -16.3999996, 0.0666666701
   2991,  -16.3999996,   0.13333334
   2992,  -16.3999996,  0.200000003
   2993,  -16.3999996,  0.266666681
   2994,  -16.3999996,  0.333333343
   2995,        -16.5, 0.0666666701
   2996,        -16.5,   0.13333334
   2997,        -16.5,  0.200000003
   2998,        -16.5,  0.266666681
   2999,        -16.5,  0.333333343
   3000,  -16.6000004, 0.0666666701
   3001,  -16.6000004,   0.13333334
   3002,  -16.6000004,  0.200000003
   3003,  -16.6000004,  0.266666681
   3004,  -16.6000004,  0.333333343
   3005,  -16.7000008, 0.0666666701
   3006,  -16.7000008,   0.13333334
   3007,  -16.7000008,  0.200000003
   3008,  -16.7000008,  0.266666681
   3009,  -16.7000008,  0.333333343
   3010,  -16.7999992, 0.0666666701
   3011,  -16.7999992,   0.13333334
   3012,  -16.7999992,  0.200000003
   3013,  -16.7999992,  0.266666681
   3014,  -16.7999992,  0.333333343
   3015,  -16.8999996, 0.0666666701
   3016,  -16.8999996,   0.13333334
   3017,  -16.8999996,  0.200000003
   3018,  -16.8999996,  0.266666681
   3019,  -16.8999996,  0.333333343
   3020,         -17., 0.0666666701
   3021,         -17.,   0.13333334
   3022,         -17.,  0.200000003
   3023,         -17.,  0.266666681
   3024,         -17.,  0.333333343
   3025,  -17.1000004, 0.0666666701
   3026,  -17.1000004,   0.13333334
   3027,  -17.1000004,  0.200000003
   3028,  -17.1000004,  0.266666681
   3029,  -17.1000004,  0.333333343
   3030,  -17.2000008, 0.0666666701
   3031,  -17.2000008,   0.13333334
   3032,  -17.2000008,  0.200000003
   3033,  -17.2000008,  0.266666681
   3034,  -17.2000008,  0.333333343
   3035,  -17.2999992, 0.0666666701
   3036,  -17.2999992,   0.13333334
   3037,  -17.2999992,  0.200000003
   3038,  -17.2999992,  0.266666681
   3039,  -17.2999992,  0.333333343
   3040,  -17.3999996, 0.0666666701
   3041,  -17.3999996,   0.13333334
   3042,  -17.3999996,  0.200000003
   3043,  -17.3999996,  0.266666681
   3044,  -17.3999996,  0.333333343
   3045,        -17.5, 0.0666666701
   3046,        -17.5,   0.13333334
   3047,        -17.5,  0.200000003
   3048,        -17.5,  0.266666681
   3049,        -17.5,  0.333333343
   3050,  -17.6000004, 0.0666666701
   3051,  -17.6000004,   0.13333334
   3052,  -17.6000004,  0.200000003
   3053,  -17.6000004,  0.266666681
   3054,  -17.6000004,  0.333333343
   3055,  -17.7000008, 0.0666666701
   3056,  -17.7000008,   0.13333334
   3057,  -17.7000008,  0.200000003
   3058,  -17.7000008,  0.266666681
   3059,  -17.7000008,  0.333333343
   3060,  -17.7999992, 0.0666666701
   3061,  -17.7999992,   0.13333334
   3062,  -17.7999992,  0.200000003
   3063,  -17.7999992,  0.266666681
   3064,  -17.7999992,  0.333333343
   3065,  -17.8999996, 0.0666666701
   3066,  -17.8999996,   0.13333334
   3067,  -17.8999996,  0.200000003
   3068,  -17.8999996,  0.266666681
   3069,  -17.8999996,  0.333333343
   3070,         -18., 0.0666666701
   3071,         -18.,   0.13333334
   3072,         -18.,  0.200000003
   3073,         -18.,  0.266666681
   3074,         -18.,  0.333333343
   3075,  -18.1000004, 0.0666666701
   3076,  -18.1000004,   0.13333334
   3077,  -18.1000004,  0.200000003
   3078,  -18.1000004,  0.266666681
   3079,  -18.1000004,  0.333333343
   3080,  -18.2000008, 0.0666666701
   3081,  -18.2000008,   0.13333334
   3082,  -18.2000008,  0.200000003
   3083,  -18.2000008,  0.266666681
   3084,  -18.2000008,  0.333333343
   3085,  -18.2999992, 0.0666666701
   3086,  -18.2999992,   0.13333334
   3087,  -18.2999992,  0.200000003
   3088,  -18.2999992,  0.266666681
   3089,  -18.2999992,  0.333333343
   3090,  -18.3999996, 0.0666666701
   3091,  -18.3999996,   0.13333334
   3092,  -18.3999996,  0.200000003
   3093,  -18.3999996,  0.266666681
   3094,  -18.3999996,  0.333333343
   3095,        -18.5, 0.0666666701
   3096,        -18.5,   0.13333334
   3097,        -18.5,  0.200000003
   3098,        -18.5,  0.266666681
   3099,        -18.5,  0.333333343
   3100,  -18.6000004, 0.0666666701
   3101,  -18.6000004,   0.13333334
   3102,  -18.6000004,  0.200000003
   3103,  -18.6000004,  0.266666681
   3104,  -18.6000004,  0.333333343
   3105,  -18.7000008, 0.0666666701
   3106,  -18.7000008,   0.13333334
   3107,  -18.7000008,  0.200000003
   3108,  -18.7000008,  0.266666681
   3109,  -18.7000008,  0.333333343
   3110,  -18.7999992, 0.0666666701
   3111,  -18.7999992,   0.13333334
   3112,  -18.7999992,  0.200000003
   3113,  -18.7999992,  0.266666681
   3114,  -18.7999992,  0.333333343
   3115,  -18.8999996, 0.0666666701
   3116,  -18.8999996,   0.13333334
   3117,  -18.8999996,  0.200000003
   3118,  -18.8999996,  0.266666681
   3119,  -18.8999996,  0.333333343
   3120,         -19., 0.0666666701
   3121,         -19.,   0.13333334
   3122,         -19.,  0.200000003
   3123,         -19.,  0.266666681
   3124,         -19.,  0.333333343
   3125,  -19.1000004, 0.0666666701
   3126,  -19.1000004,   0.13333334
   3127,  -19.1000004,  0.200000003
   3128,  -19.1000004,  0.266666681
   3129,  -19.1000004,  0.333333343
   3130,  -19.2000008, 0.0666666701
   3131,  -19.2000008,   0.13333334
   3132,  -19.2000008,  0.200000003
   3133,  -19.2000008,  0.266666681
   3134,  -19.2000008,  0.333333343
   3135,  -19.2999992, 0.0666666701
   3136,  -19.2999992,   0.13333334
   3137,  -19.2999992,  0.200000003
   3138,  -19.2999992,  0.266666681
   3139,  -19.2999992,  0.333333343
   3140,  -19.3999996, 0.0666666701
   3141,  -19.3999996,   0.13333334
   3142,  -19.3999996,  0.200000003
   3143,  -19.3999996,  0.266666681
   3144,  -19.3999996,  0.333333343
   3145,        -19.5, 0.0666666701
   3146,        -19.5,   0.13333334
   3147,        -19.5,  0.200000003
   3148,        -19.5,  0.266666681
   3149,        -19.5,  0.333333343
   3150,  -19.6000004, 0.0666666701
   3151,  -19.6000004,   0.13333334
   3152,  -19.6000004,  0.200000003
   3153,  -19.6000004,  0.266666681
   3154,  -19.6000004,  0.333333343
   3155,  -19.7000008, 0.0666666701
   3156,  -19.7000008,   0.13333334
   3157,  -19.7000008,  0.200000003
   3158,  -19.7000008,  0.266666681
   3159,  -19.7000008,  0.333333343
   3160,  -19.7999992, 0.0666666701
   3161,  -19.7999992,   0.13333334
   3162,  -19.7999992,  0.200000003
   3163,  -19.7999992,  0.266666681
   3164,  -19.7999992,  0.333333343
   3165,  -19.8999996, 0.0666666701
   3166,  -19.8999996,   0.13333334
   3167,  -19.8999996,  0.200000003
   3168,  -19.8999996,  0.266666681
   3169,  -19.8999996,  0.333333343
   3170,         -20., 0.0666666701
   3171,         -20.,   0.13333334
   3172,         -20.,  0.200000003
   3173,         -20.,  0.266666681
   3174,         -20.,  0.333333343
   3175,  -20.1000004, 0.0666666701
   3176,  -20.1000004,   0.13333334
   3177,  -20.1000004,  0.200000003
   3178,  -20.1000004,  0.266666681
   3179,  -20.1000004,  0.333333343
   3180,  -20.2000008, 0.0666666701
   3181,  -20.2000008,   0.13333334
   3182,  -20.2000008,  0.200000003
   3183,  -20.2000008,  0.266666681
   3184,  -20.2000008,  0.333333343
   3185,  -20.2999992, 0.0666666701
   3186,  -20.2999992,   0.13333334
   3187,  -20.2999992,  0.200000003
   3188,  -20.2999992,  0.266666681
   3189,  -20.2999992,  0.333333343
   3190,  -20.3999996, 0.0666666701
   3191,  -20.3999996,   0.13333334
   3192,  -20.3999996,  0.200000003
   3193,  -20.3999996,  0.266666681
   3194,  -20.3999996,  0.333333343
   3195,        -20.5, 0.0666666701
   3196,        -20.5,   0.13333334
   3197,        -20.5,  0.200000003
   3198,        -20.5,  0.266666681
   3199,        -20.5,  0.333333343
   3200,  -20.6000004, 0.0666666701
   3201,  -20.6000004,   0.13333334
   3202,  -20.6000004,  0.200000003
   3203,  -20.6000004,  0.266666681
   3204,  -20.6000004,  0.333333343
   3205,  -20.7000008, 0.0666666701
   3206,  -20.7000008,   0.13333334
   3207,  -20.7000008,  0.200000003
   3208,  -20.7000008,  0.266666681
   3209,  -20.7000008,  0.333333343
   3210,  -20.7999992, 0.0666666701
   3211,  -20.7999992,   0.13333334
   3212,  -20.7999992,  0.200000003
   3213,  -20.7999992,  0.266666681
   3214,  -20.7999992,  0.333333343
   3215,  -20.8999996, 0.0666666701
   3216,  -20.8999996,   0.13333334
   3217,  -20.8999996,  0.200000003
   3218,  -20.8999996,  0.266666681
   3219,  -20.8999996,  0.333333343
   3220,         -21., 0.0666666701
   3221,         -21.,   0.13333334
   3222,         -21.,  0.200000003
   3223,         -21.,  0.266666681
   3224,         -21.,  0.333333343
   3225,  -21.1000004, 0.0666666701
   3226,  -21.1000004,   0.13333334
   3227,  -21.1000004,  0.200000003
   3228,  -21.1000004,  0.266666681
   3229,  -21.1000004,  0.333333343
   3230,  -21.2000008, 0.0666666701
   3231,  -21.2000008,   0.13333334
   3232,  -21.2000008,  0.200000003
   3233,  -21.2000008,  0.266666681
   3234,  -21.2000008,  0.333333343
   3235,  -21.2999992, 0.0666666701
   3236,  -21.2999992,   0.13333334
   3237,  -21.2999992,  0.200000003
   3238,  -21.2999992,  0.266666681
   3239,  -21.2999992,  0.333333343
   3240,  -21.3999996, 0.0666666701
   3241,  -21.3999996,   0.13333334
   3242,  -21.3999996,  0.200000003
   3243,  -21.3999996,  0.266666681
   3244,  -21.3999996,  0.333333343
   3245,        -21.5, 0.0666666701
   3246,        -21.5,   0.13333334
   3247,        -21.5,  0.200000003
   3248,        -21.5,  0.266666681
   3249,        -21.5,  0.333333343
   3250,  -21.6000004, 0.0666666701
   3251,  -21.6000004,   0.13333334
   3252,  -21.6000004,  0.200000003
   3253,  -21.6000004,  0.266666681
   3254,  -21.6000004,  0.333333343
   3255,  -21.7000008, 0.0666666701
   3256,  -21.7000008,   0.13333334
   3257,  -21.7000008,  0.200000003
   3258,  -21.7000008,  0.266666681
   3259,  -21.7000008,  0.333333343
   3260,  -21.7999992, 0.0666666701
   3261,  -21.7999992,   0.13333334
   3262,  -21.7999992,  0.200000003
   3263,  -21.7999992,  0.266666681
   3264,  -21.7999992,  0.333333343
   3265,  -21.8999996, 0.0666666701
   3266,  -21.8999996,   0.13333334
   3267,  -21.8999996,  0.200000003
   3268,  -21.8999996,  0.266666681
   3269,  -21.8999996,  0.333333343
   3270,         -22., 0.0666666701
   3271,         -22.,   0.13333334
   3272,         -22.,  0.200000003
   3273,         -22.,  0.266666681
   3274,         -22.,  0.333333343
   3275,  -22.1000004, 0.0666666701
   3276,  -22.1000004,   0.13333334
   3277,  -22.1000004,  0.200000003
   3278,  -22.1000004,  0.266666681
   3279,  -22.1000004,  0.333333343
   3280,  -22.2000008, 0.0666666701
   3281,  -22.2000008,   0.13333334
   3282,  -22.2000008,  0.200000003
   3283,  -22.2000008,  0.266666681
   3284,  -22.2000008,  0.333333343
   3285,  -22.2999992, 0.0666666701
   3286,  -22.2999992,   0.13333334
   3287,  -22.2999992,  0.200000003
   3288,  -22.2999992,  0.266666681
   3289,  -22.2999992,  0.333333343
   3290,  -22.3999996, 0.0666666701
   3291,  -22.3999996,   0.13333334
   3292,  -22.3999996,  0.200000003
   3293,  -22.3999996,  0.266666681
   3294,  -22.3999996,  0.333333343
   3295,        -22.5, 0.0666666701
   3296,        -22.5,   0.13333334
   3297,        -22.5,  0.200000003
   3298,        -22.5,  0.266666681
   3299,        -22.5,  0.333333343
   3300,  -22.6000004, 0.0666666701
   3301,  -22.6000004,   0.13333334
   3302,  -22.6000004,  0.200000003
   3303,  -22.6000004,  0.266666681
   3304,  -22.6000004,  0.333333343
   3305,  -22.7000008, 0.0666666701
   3306,  -22.7000008,   0.13333334
   3307,  -22.7000008,  0.200000003
   3308,  -22.7000008,  0.266666681
   3309,  -22.7000008,  0.333333343
   3310,  -22.7999992, 0.0666666701
   3311,  -22.7999992,   0.13333334
   3312,  -22.7999992,  0.200000003
   3313,  -22.7999992,  0.266666681
   3314,  -22.7999992,  0.333333343
   3315,  -22.8999996, 0.0666666701
   3316,  -22.8999996,   0.13333334
   3317,  -22.8999996,  0.200000003
   3318,  -22.8999996,  0.266666681
   3319,  -22.8999996,  0.333333343
   3320,         -23., 0.0666666701
   3321,         -23.,   0.13333334
   3322,         -23.,  0.200000003
   3323,         -23.,  0.266666681
   3324,         -23.,  0.333333343
   3325,  -23.1000004, 0.0666666701
   3326,  -23.1000004,   0.13333334
   3327,  -23.1000004,  0.200000003
   3328,  -23.1000004,  0.266666681
   3329,  -23.1000004,  0.333333343
   3330,  -23.2000008, 0.0666666701
   3331,  -23.2000008,   0.13333334
   3332,  -23.2000008,  0.200000003
   3333,  -23.2000008,  0.266666681
   3334,  -23.2000008,  0.333333343
   3335,  -23.2999992, 0.0666666701
   3336,  -23.2999992,   0.13333334
   3337,  -23.2999992,  0.200000003
   3338,  -23.2999992,  0.266666681
   3339,  -23.2999992,  0.333333343
   3340,  -23.3999996, 0.0666666701
   3341,  -23.3999996,   0.13333334
   3342,  -23.3999996,  0.200000003
   3343,  -23.3999996,  0.266666681
   3344,  -23.3999996,  0.333333343
   3345,        -23.5, 0.0666666701
   3346,        -23.5,   0.13333334
   3347,        -23.5,  0.200000003
   3348,        -23.5,  0.266666681
   3349,        -23.5,  0.333333343
   3350,  -23.6000004, 0.0666666701
   3351,  -23.6000004,   0.13333334
   3352,  -23.6000004,  0.200000003
   3353,  -23.6000004,  0.266666681
   3354,  -23.6000004,  0.333333343
   3355,  -23.7000008, 0.0666666701
   3356,  -23.7000008,   0.13333334
   3357,  -23.7000008,  0.200000003
   3358,  -23.7000008,  0.266666681
   3359,  -23.7000008,  0.333333343
   3360,  -23.7999992, 0.0666666701
   3361,  -23.7999992,   0.13333334
   3362,  -23.7999992,  0.200000003
   3363,  -23.7999992,  0.266666681
   3364,  -23.7999992,  0.333333343
   3365,  -23.8999996, 0.0666666701
   3366,  -23.8999996,   0.13333334
   3367,  -23.8999996,  0.200000003
   3368,  -23.8999996,  0.266666681
   3369,  -23.8999996,  0.333333343
   3370,         -24., 0.0666666701
   3371,         -24.,   0.13333334
   3372,         -24.,  0.200000003
   3373,         -24.,  0.266666681
   3374,         -24.,  0.333333343
   3375,  -24.1000004, 0.0666666701
   3376,  -24.1000004,   0.13333334
   3377,  -24.1000004,  0.200000003
   3378,  -24.1000004,  0.266666681
   3379,  -24.1000004,  0.333333343
   3380,  -24.2000008, 0.0666666701
   3381,  -24.2000008,   0.13333334
   3382,  -24.2000008,  0.200000003
   3383,  -24.2000008,  0.266666681
   3384,  -24.2000008,  0.333333343
   3385,  -24.2999992, 0.0666666701
   3386,  -24.2999992,   0.13333334
   3387,  -24.2999992,  0.200000003
   3388,  -24.2999992,  0.266666681
   3389,  -24.2999992,  0.333333343
   3390,  -24.3999996, 0.0666666701
   3391,  -24.3999996,   0.13333334
   3392,  -24.3999996,  0.200000003
   3393,  -24.3999996,  0.266666681
   3394,  -24.3999996,  0.333333343
   3395,        -24.5, 0.0666666701
   3396,        -24.5,   0.13333334
   3397,        -24.5,  0.200000003
   3398,        -24.5,  0.266666681
   3399,        -24.5,  0.333333343
   3400,  -24.6000004, 0.0666666701
   3401,  -24.6000004,   0.13333334
   3402,  -24.6000004,  0.200000003
   3403,  -24.6000004,  0.266666681
   3404,  -24.6000004,  0.333333343
   3405,  -24.7000008, 0.0666666701
   3406,  -24.7000008,   0.13333334
   3407,  -24.7000008,  0.200000003
   3408,  -24.7000008,  0.266666681
   3409,  -24.7000008,  0.333333343
   3410,  -24.7999992, 0.0666666701
   3411,  -24.7999992,   0.13333334
   3412,  -24.7999992,  0.200000003
   3413,  -24.7999992,  0.266666681
   3414,  -24.7999992,  0.333333343
   3415,  -24.8999996, 0.0666666701
   3416,  -24.8999996,   0.13333334
   3417,  -24.8999996,  0.200000003
   3418,  -24.8999996,  0.266666681
   3419,  -24.8999996,  0.333333343
   3420,         -25., 0.0666666701
   3421,         -25.,   0.13333334
   3422,         -25.,  0.200000003
   3423,         -25.,  0.266666681
   3424,         -25.,  0.333333343
   3425,  -25.1000004, 0.0666666701
   3426,  -25.1000004,   0.13333334
   3427,  -25.1000004,  0.200000003
   3428,  -25.1000004,  0.266666681
   3429,  -25.1000004,  0.333333343
   3430,  -25.2000008, 0.0666666701
   3431,  -25.2000008,   0.13333334
   3432,  -25.2000008,  0.200000003
   3433,  -25.2000008,  0.266666681
   3434,  -25.2000008,  0.333333343
   3435,  -25.2999992, 0.0666666701
   3436,  -25.2999992,   0.13333334
   3437,  -25.2999992,  0.200000003
   3438,  -25.2999992,  0.266666681
   3439,  -25.2999992,  0.333333343
   3440,  -25.3999996, 0.0666666701
   3441,  -25.3999996,   0.13333334
   3442,  -25.3999996,  0.200000003
   3443,  -25.3999996,  0.266666681
   3444,  -25.3999996,  0.333333343
   3445,        -25.5, 0.0666666701
   3446,        -25.5,   0.13333334
   3447,        -25.5,  0.200000003
   3448,        -25.5,  0.266666681
   3449,        -25.5,  0.333333343
   3450,  -25.6000004, 0.0666666701
   3451,  -25.6000004,   0.13333334
   3452,  -25.6000004,  0.200000003
   3453,  -25.6000004,  0.266666681
   3454,  -25.6000004,  0.333333343
   3455,  -25.7000008, 0.0666666701
   3456,  -25.7000008,   0.13333334
   3457,  -25.7000008,  0.200000003
   3458,  -25.7000008,  0.266666681
   3459,  -25.7000008,  0.333333343
   3460,  -25.7999992, 0.0666666701
   3461,  -25.7999992,   0.13333334
   3462,  -25.7999992,  0.200000003
   3463,  -25.7999992,  0.266666681
   3464,  -25.7999992,  0.333333343
   3465,  -25.8999996, 0.0666666701
   3466,  -25.8999996,   0.13333334
   3467,  -25.8999996,  0.200000003
   3468,  -25.8999996,  0.266666681
   3469,  -25.8999996,  0.333333343
   3470,         -26., 0.0666666701
   3471,         -26.,   0.13333334
   3472,         -26.,  0.200000003
   3473,         -26.,  0.266666681
   3474,         -26.,  0.333333343
   3475,  -26.1000004, 0.0666666701
   3476,  -26.1000004,   0.13333334
   3477,  -26.1000004,  0.200000003
   3478,  -26.1000004,  0.266666681
   3479,  -26.1000004,  0.333333343
   3480,  -26.2000008, 0.0666666701
   3481,  -26.2000008,   0.13333334
   3482,  -26.2000008,  0.200000003
   3483,  -26.2000008,  0.266666681
   3484,  -26.2000008,  0.333333343
   3485,  -26.2999992, 0.0666666701
   3486,  -26.2999992,   0.13333334
   3487,  -26.2999992,  0.200000003
   3488,  -26.2999992,  0.266666681
   3489,  -26.2999992,  0.333333343
   3490,  -26.3999996, 0.0666666701
   3491,  -26.3999996,   0.13333334
   3492,  -26.3999996,  0.200000003
   3493,  -26.3999996,  0.266666681
   3494,  -26.3999996,  0.333333343
   3495,        -26.5, 0.0666666701
   3496,        -26.5,   0.13333334
   3497,        -26.5,  0.200000003
   3498,        -26.5,  0.266666681
   3499,        -26.5,  0.333333343
   3500,  -26.6000004, 0.0666666701
   3501,  -26.6000004,   0.13333334
   3502,  -26.6000004,  0.200000003
   3503,  -26.6000004,  0.266666681
   3504,  -26.6000004,  0.333333343
   3505,  -26.7000008, 0.0666666701
   3506,  -26.7000008,   0.13333334
   3507,  -26.7000008,  0.200000003
   3508,  -26.7000008,  0.266666681
   3509,  -26.7000008,  0.333333343
   3510,  -26.7999992, 0.0666666701
   3511,  -26.7999992,   0.13333334
   3512,  -26.7999992,  0.200000003
   3513,  -26.7999992,  0.266666681
   3514,  -26.7999992,  0.333333343
   3515,  -26.8999996, 0.0666666701
   3516,  -26.8999996,   0.13333334
   3517,  -26.8999996,  0.200000003
   3518,  -26.8999996,  0.266666681
   3519,  -26.8999996,  0.333333343
   3520,         -27., 0.0666666701
   3521,         -27.,   0.13333334
   3522,         -27.,  0.200000003
   3523,         -27.,  0.266666681
   3524,         -27.,  0.333333343
   3525,  -27.1000004, 0.0666666701
   3526,  -27.1000004,   0.13333334
   3527,  -27.1000004,  0.200000003
   3528,  -27.1000004,  0.266666681
   3529,  -27.1000004,  0.333333343
   3530,  -27.2000008, 0.0666666701
   3531,  -27.2000008,   0.13333334
   3532,  -27.2000008,  0.200000003
   3533,  -27.2000008,  0.266666681
   3534,  -27.2000008,  0.333333343
   3535,  -27.2999992, 0.0666666701
   3536,  -27.2999992,   0.13333334
   3537,  -27.2999992,  0.200000003
   3538,  -27.2999992,  0.266666681
   3539,  -27.2999992,  0.333333343
   3540,  -27.3999996, 0.0666666701
   3541,  -27.3999996,   0.13333334
   3542,  -27.3999996,  0.200000003
   3543,  -27.3999996,  0.266666681
   3544,  -27.3999996,  0.333333343
   3545,        -27.5, 0.0666666701
   3546,        -27.5,   0.13333334
   3547,        -27.5,  0.200000003
   3548,        -27.5,  0.266666681
   3549,        -27.5,  0.333333343
   3550,  -27.6000004, 0.0666666701
   3551,  -27.6000004,   0.13333334
   3552,  -27.6000004,  0.200000003
   3553,  -27.6000004,  0.266666681
   3554,  -27.6000004,  0.333333343
   3555,  -27.7000008, 0.0666666701
   3556,  -27.7000008,   0.13333334
   3557,  -27.7000008,  0.200000003
   3558,  -27.7000008,  0.266666681
   3559,  -27.7000008,  0.333333343
   3560,  -27.7999992, 0.0666666701
   3561,  -27.7999992,   0.13333334
   3562,  -27.7999992,  0.200000003
   3563,  -27.7999992,  0.266666681
   3564,  -27.7999992,  0.333333343
   3565,  -27.8999996, 0.0666666701
   3566,  -27.8999996,   0.13333334
   3567,  -27.8999996,  0.200000003
   3568,  -27.8999996,  0.266666681
   3569,  -27.8999996,  0.333333343
   3570,         -28., 0.0666666701
   3571,         -28.,   0.13333334
   3572,         -28.,  0.200000003
   3573,         -28.,  0.266666681
   3574,         -28.,  0.333333343
   3575,  -28.1000004, 0.0666666701
   3576,  -28.1000004,   0.13333334
   3577,  -28.1000004,  0.200000003
   3578,  -28.1000004,  0.266666681
   3579,  -28.1000004,  0.333333343
   3580,  -28.2000008, 0.0666666701
   3581,  -28.2000008,   0.13333334
   3582,  -28.2000008,  0.200000003
   3583,  -28.2000008,  0.266666681
   3584,  -28.2000008,  0.333333343
   3585,  -28.2999992, 0.0666666701
   3586,  -28.2999992,   0.13333334
   3587,  -28.2999992,  0.200000003
   3588,  -28.2999992,  0.266666681
   3589,  -28.2999992,  0.333333343
   3590,  -28.3999996, 0.0666666701
   3591,  -28.3999996,   0.13333334
   3592,  -28.3999996,  0.200000003
   3593,  -28.3999996,  0.266666681
   3594,  -28.3999996,  0.333333343
   3595,        -28.5, 0.0666666701
   3596,        -28.5,   0.13333334
   3597,        -28.5,  0.200000003
   3598,        -28.5,  0.266666681
   3599,        -28.5,  0.333333343
   3600,  -28.6000004, 0.0666666701
   3601,  -28.6000004,   0.13333334
   3602,  -28.6000004,  0.200000003
   3603,  -28.6000004,  0.266666681
   3604,  -28.6000004,  0.333333343
   3605,  -28.7000008, 0.0666666701
   3606,  -28.7000008,   0.13333334
   3607,  -28.7000008,  0.200000003
   3608,  -28.7000008,  0.266666681
   3609,  -28.7000008,  0.333333343
   3610,  -28.7999992, 0.0666666701
   3611,  -28.7999992,   0.13333334
   3612,  -28.7999992,  0.200000003
   3613,  -28.7999992,  0.266666681
   3614,  -28.7999992,  0.333333343
   3615,  -28.8999996, 0.0666666701
   3616,  -28.8999996,   0.13333334
   3617,  -28.8999996,  0.200000003
   3618,  -28.8999996,  0.266666681
   3619,  -28.8999996,  0.333333343
   3620,         -29., 0.0666666701
   3621,         -29.,   0.13333334
   3622,         -29.,  0.200000003
   3623,         -29.,  0.266666681
   3624,         -29.,  0.333333343
   3625,  -29.1000004, 0.0666666701
   3626,  -29.1000004,   0.13333334
   3627,  -29.1000004,  0.200000003
   3628,  -29.1000004,  0.266666681
   3629,  -29.1000004,  0.333333343
   3630,  -29.2000008, 0.0666666701
   3631,  -29.2000008,   0.13333334
   3632,  -29.2000008,  0.200000003
   3633,  -29.2000008,  0.266666681
   3634,  -29.2000008,  0.333333343
   3635,  -29.2999992, 0.0666666701
   3636,  -29.2999992,   0.13333334
   3637,  -29.2999992,  0.200000003
   3638,  -29.2999992,  0.266666681
   3639,  -29.2999992,  0.333333343
   3640,  -29.3999996, 0.0666666701
   3641,  -29.3999996,   0.13333334
   3642,  -29.3999996,  0.200000003
   3643,  -29.3999996,  0.266666681
   3644,  -29.3999996,  0.333333343
   3645,        -29.5, 0.0666666701
   3646,        -29.5,   0.13333334
   3647,        -29.5,  0.200000003
   3648,        -29.5,  0.266666681
   3649,        -29.5,  0.333333343
   3650,  -29.6000004, 0.0666666701
   3651,  -29.6000004,   0.13333334
   3652,  -29.6000004,  0.200000003
   3653,  -29.6000004,  0.266666681
   3654,  -29.6000004,  0.333333343
   3655,  -29.7000008, 0.0666666701
   3656,  -29.7000008,   0.13333334
   3657,  -29.7000008,  0.200000003
   3658,  -29.7000008,  0.266666681
   3659,  -29.7000008,  0.333333343
   3660,  -29.7999992, 0.0666666701
   3661,  -29.7999992,   0.13333334
   3662,  -29.7999992,  0.200000003
   3663,  -29.7999992,  0.266666681
   3664,  -29.7999992,  0.333333343
   3665,  -29.8999996, 0.0666666701
   3666,  -29.8999996,   0.13333334
   3667,  -29.8999996,  0.200000003
   3668,  -29.8999996,  0.266666681
   3669,  -29.8999996,  0.333333343
   3670,         -30., 0.0666666701
   3671,         -30.,   0.13333334
   3672,         -30.,  0.200000003
   3673,         -30.,  0.266666681
   3674,         -30.,  0.333333343
   3675,  -30.1000004, 0.0666666701
   3676,  -30.1000004,   0.13333334
   3677,  -30.1000004,  0.200000003
   3678,  -30.1000004,  0.266666681
   3679,  -30.1000004,  0.333333343
   3680,  -30.2000008, 0.0666666701
   3681,  -30.2000008,   0.13333334
   3682,  -30.2000008,  0.200000003
   3683,  -30.2000008,  0.266666681
   3684,  -30.2000008,  0.333333343
   3685,  -30.2999992, 0.0666666701
   3686,  -30.2999992,   0.13333334
   3687,  -30.2999992,  0.200000003
   3688,  -30.2999992,  0.266666681
   3689,  -30.2999992,  0.333333343
   3690,  -30.3999996, 0.0666666701
   3691,  -30.3999996,   0.13333334
   3692,  -30.3999996,  0.200000003
   3693,  -30.3999996,  0.266666681
   3694,  -30.3999996,  0.333333343
   3695,        -30.5, 0.0666666701
   3696,        -30.5,   0.13333334
   3697,        -30.5,  0.200000003
   3698,        -30.5,  0.266666681
   3699,        -30.5,  0.333333343
   3700,  -30.6000004, 0.0666666701
   3701,  -30.6000004,   0.13333334
   3702,  -30.6000004,  0.200000003
   3703,  -30.6000004,  0.266666681
   3704,  -30.6000004,  0.333333343
   3705,  -30.7000008, 0.0666666701
   3706,  -30.7000008,   0.13333334
   3707,  -30.7000008,  0.200000003
   3708,  -30.7000008,  0.266666681
   3709,  -30.7000008,  0.333333343
   3710,  -30.7999992, 0.0666666701
   3711,  -30.7999992,   0.13333334
   3712,  -30.7999992,  0.200000003
   3713,  -30.7999992,  0.266666681
   3714,  -30.7999992,  0.333333343
   3715,  -30.8999996, 0.0666666701
   3716,  -30.8999996,   0.13333334
   3717,  -30.8999996,  0.200000003
   3718,  -30.8999996,  0.266666681
   3719,  -30.8999996,  0.333333343
   3720,         -31., 0.0666666701
   3721,         -31.,   0.13333334
   3722,         -31.,  0.200000003
   3723,         -31.,  0.266666681
   3724,         -31.,  0.333333343
   3725,  -31.1000004, 0.0666666701
   3726,  -31.1000004,   0.13333334
   3727,  -31.1000004,  0.200000003
   3728,  -31.1000004,  0.266666681
   3729,  -31.1000004,  0.333333343
   3730,  -31.2000008, 0.0666666701
   3731,  -31.2000008,   0.13333334
   3732,  -31.2000008,  0.200000003
   3733,  -31.2000008,  0.266666681
   3734,  -31.2000008,  0.333333343
   3735,  -31.2999992, 0.0666666701
   3736,  -31.2999992,   0.13333334
   3737,  -31.2999992,  0.200000003
   3738,  -31.2999992,  0.266666681
   3739,  -31.2999992,  0.333333343
   3740,  -31.3999996, 0.0666666701
   3741,  -31.3999996,   0.13333334
   3742,  -31.3999996,  0.200000003
   3743,  -31.3999996,  0.266666681
   3744,  -31.3999996,  0.333333343
   3745,        -31.5, 0.0666666701
   3746,        -31.5,   0.13333334
   3747,        -31.5,  0.200000003
   3748,        -31.5,  0.266666681
   3749,        -31.5,  0.333333343
   3750,  -31.6000004, 0.0666666701
   3751,  -31.6000004,   0.13333334
   3752,  -31.6000004,  0.200000003
   3753,  -31.6000004,  0.266666681
   3754,  -31.6000004,  0.333333343
   3755,  -31.7000008, 0.0666666701
   3756,  -31.7000008,   0.13333334
   3757,  -31.7000008,  0.200000003
   3758,  -31.7000008,  0.266666681
   3759,  -31.7000008,  0.333333343
   3760,  -31.7999992, 0.0666666701
   3761,  -31.7999992,   0.13333334
   3762,  -31.7999992,  0.200000003
   3763,  -31.7999992,  0.266666681
   3764,  -31.7999992,  0.333333343
   3765,  -31.8999996, 0.0666666701
   3766,  -31.8999996,   0.13333334
   3767,  -31.8999996,  0.200000003
   3768,  -31.8999996,  0.266666681
   3769,  -31.8999996,  0.333333343
   3770,         -32., 0.0666666701
   3771,         -32.,   0.13333334
   3772,         -32.,  0.200000003
   3773,         -32.,  0.266666681
   3774,         -32.,  0.333333343
   3775,  -32.0999985, 0.0666666701
   3776,  -32.0999985,   0.13333334
   3777,  -32.0999985,  0.200000003
   3778,  -32.0999985,  0.266666681
   3779,  -32.0999985,  0.333333343
   3780,  -32.2000008, 0.0666666701
   3781,  -32.2000008,   0.13333334
   3782,  -32.2000008,  0.200000003
   3783,  -32.2000008,  0.266666681
   3784,  -32.2000008,  0.333333343
   3785,  -32.2999992, 0.0666666701
   3786,  -32.2999992,   0.13333334
   3787,  -32.2999992,  0.200000003
   3788,  -32.2999992,  0.266666681
   3789,  -32.2999992,  0.333333343
   3790,  -32.4000015, 0.0666666701
   3791,  -32.4000015,   0.13333334
   3792,  -32.4000015,  0.200000003
   3793,  -32.4000015,  0.266666681
   3794,  -32.4000015,  0.333333343
   3795,        -32.5, 0.0666666701
   3796,        -32.5,   0.13333334
   3797,        -32.5,  0.200000003
   3798,        -32.5,  0.266666681
   3799,        -32.5,  0.333333343
   3800,  -32.5999985, 0.0666666701
   3801,  -32.5999985,   0.13333334
   3802,  -32.5999985,  0.200000003
   3803,  -32.5999985,  0.266666681
   3804,  -32.5999985,  0.333333343
   3805,  -32.7000008, 0.0666666701
   3806,  -32.7000008,   0.13333334
   3807,  -32.7000008,  0.200000003
   3808,  -32.7000008,  0.266666681
   3809,  -32.7000008,  0.333333343
   3810,  -32.7999992, 0.0666666701
   3811,  -32.7999992,   0.13333334
   3812,  -32.7999992,  0.200000003
   3813,  -32.7999992,  0.266666681
   3814,  -32.7999992,  0.333333343
   3815,  -32.9000015, 0.0666666701
   3816,  -32.9000015,   0.13333334
   3817,  -32.9000015,  0.200000003
   3818,  -32.9000015,  0.266666681
   3819,  -32.9000015,  0.333333343
   3820,         -33., 0.0666666701
   3821,         -33.,   0.13333334
   3822,         -33.,  0.200000003
   3823,         -33.,  0.266666681
   3824,         -33.,  0.333333343
   3825,  -33.0999985, 0.0666666701
   3826,  -33.0999985,   0.13333334
   3827,  -33.0999985,  0.200000003
   3828,  -33.0999985,  0.266666681
   3829,  -33.0999985,  0.333333343
   3830,  -33.2000008, 0.0666666701
   3831,  -33.2000008,   0.13333334
   3832,  -33.2000008,  0.200000003
   3833,  -33.2000008,  0.266666681
   3834,  -33.2000008,  0.333333343
   3835,  -33.2999992, 0.0666666701
   3836,  -33.2999992,   0.13333334
   3837,  -33.2999992,  0.200000003
   3838,  -33.2999992,  0.266666681
   3839,  -33.2999992,  0.333333343
   3840,  -33.4000015, 0.0666666701
   3841,  -33.4000015,   0.13333334
   3842,  -33.4000015,  0.200000003
   3843,  -33.4000015,  0.266666681
   3844,  -33.4000015,  0.333333343
   3845,        -33.5, 0.0666666701
   3846,        -33.5,   0.13333334
   3847,        -33.5,  0.200000003
   3848,        -33.5,  0.266666681
   3849,        -33.5,  0.333333343
   3850,  -33.5999985, 0.0666666701
   3851,  -33.5999985,   0.13333334
   3852,  -33.5999985,  0.200000003
   3853,  -33.5999985,  0.266666681
   3854,  -33.5999985,  0.333333343
   3855,  -33.7000008, 0.0666666701
   3856,  -33.7000008,   0.13333334
   3857,  -33.7000008,  0.200000003
   3858,  -33.7000008,  0.266666681
   3859,  -33.7000008,  0.333333343
   3860,  -33.7999992, 0.0666666701
   3861,  -33.7999992,   0.13333334
   3862,  -33.7999992,  0.200000003
   3863,  -33.7999992,  0.266666681
   3864,  -33.7999992,  0.333333343
   3865,  -33.9000015, 0.0666666701
   3866,  -33.9000015,   0.13333334
   3867,  -33.9000015,  0.200000003
   3868,  -33.9000015,  0.266666681
   3869,  -33.9000015,  0.333333343
   3870,         -34., 0.0666666701
   3871,         -34.,   0.13333334
   3872,         -34.,  0.200000003
   3873,         -34.,  0.266666681
   3874,         -34.,  0.333333343
   3875,  -34.0999985, 0.0666666701
   3876,  -34.0999985,   0.13333334
   3877,  -34.0999985,  0.200000003
   3878,  -34.0999985,  0.266666681
   3879,  -34.0999985,  0.333333343
   3880,  -34.2000008, 0.0666666701
   3881,  -34.2000008,   0.13333334
   3882,  -34.2000008,  0.200000003
   3883,  -34.2000008,  0.266666681
   3884,  -34.2000008,  0.333333343
   3885,  -34.2999992, 0.0666666701
   3886,  -34.2999992,   0.13333334
   3887,  -34.2999992,  0.200000003
   3888,  -34.2999992,  0.266666681
   3889,  -34.2999992,  0.333333343
   3890,  -34.4000015, 0.0666666701
   3891,  -34.4000015,   0.13333334
   3892,  -34.4000015,  0.200000003
   3893,  -34.4000015,  0.266666681
   3894,  -34.4000015,  0.333333343
   3895,        -34.5, 0.0666666701
   3896,        -34.5,   0.13333334
   3897,        -34.5,  0.200000003
   3898,        -34.5,  0.266666681
   3899,        -34.5,  0.333333343
   3900,  -34.5999985, 0.0666666701
   3901,  -34.5999985,   0.13333334
   3902,  -34.5999985,  0.200000003
   3903,  -34.5999985,  0.266666681
   3904,  -34.5999985,  0.333333343
   3905,  -34.7000008, 0.0666666701
   3906,  -34.7000008,   0.13333334
   3907,  -34.7000008,  0.200000003
   3908,  -34.7000008,  0.266666681
   3909,  -34.7000008,  0.333333343
   3910,  -34.7999992, 0.0666666701
   3911,  -34.7999992,   0.13333334
   3912,  -34.7999992,  0.200000003
   3913,  -34.7999992,  0.266666681
   3914,  -34.7999992,  0.333333343
   3915,  -34.9000015, 0.0666666701
   3916,  -34.9000015,   0.13333334
   3917,  -34.9000015,  0.200000003
   3918,  -34.9000015,  0.266666681
   3919,  -34.9000015,  0.333333343
   3920,         -35., 0.0666666701
   3921,         -35.,   0.13333334
   3922,         -35.,  0.200000003
   3923,         -35.,  0.266666681
   3924,         -35.,  0.333333343
   3925,  -35.0999985, 0.0666666701
   3926,  -35.0999985,   0.13333334
   3927,  -35.0999985,  0.200000003
   3928,  -35.0999985,  0.266666681
   3929,  -35.0999985,  0.333333343
   3930,  -35.2000008, 0.0666666701
   3931,  -35.2000008,   0.13333334
   3932,  -35.2000008,  0.200000003
   3933,  -35.2000008,  0.266666681
   3934,  -35.2000008,  0.333333343
   3935,  -35.2999992, 0.0666666701
   3936,  -35.2999992,   0.13333334
   3937,  -35.2999992,  0.200000003
   3938,  -35.2999992,  0.266666681
   3939,  -35.2999992,  0.333333343
   3940,  -35.4000015, 0.0666666701
   3941,  -35.4000015,   0.13333334
   3942,  -35.4000015,  0.200000003
   3943,  -35.4000015,  0.266666681
   3944,  -35.4000015,  0.333333343
   3945,        -35.5, 0.0666666701
   3946,        -35.5,   0.13333334
   3947,        -35.5,  0.200000003
   3948,        -35.5,  0.266666681
   3949,        -35.5,  0.333333343
   3950,  -35.5999985, 0.0666666701
   3951,  -35.5999985,   0.13333334
   3952,  -35.5999985,  0.200000003
   3953,  -35.5999985,  0.266666681
   3954,  -35.5999985,  0.333333343
   3955,  -35.7000008, 0.0666666701
   3956,  -35.7000008,   0.13333334
   3957,  -35.7000008,  0.200000003
   3958,  -35.7000008,  0.266666681
   3959,  -35.7000008,  0.333333343
   3960,  -35.7999992, 0.0666666701
   3961,  -35.7999992,   0.13333334
   3962,  -35.7999992,  0.200000003
   3963,  -35.7999992,  0.266666681
   3964,  -35.7999992,  0.333333343
   3965,  -35.9000015, 0.0666666701
   3966,  -35.9000015,   0.13333334
   3967,  -35.9000015,  0.200000003
   3968,  -35.9000015,  0.266666681
   3969,  -35.9000015,  0.333333343
*Element, type=CPE4I
  1,    1,   11, 1155,   72
  2,   11,   12, 1156, 1155
  3,   12,   13, 1157, 1156
  4,   13,   14, 1158, 1157
  5,   14,   15, 1159, 1158
  6,   15,    2,   16, 1159
  7,   72, 1155, 1160,   71
  8, 1155, 1156, 1161, 1160
  9, 1156, 1157, 1162, 1161
 10, 1157, 1158, 1163, 1162
 11, 1158, 1159, 1164, 1163
 12, 1159,   16,   17, 1164
 13,   71, 1160, 1165,   70
 14, 1160, 1161, 1166, 1165
 15, 1161, 1162, 1167, 1166
 16, 1162, 1163, 1168, 1167
 17, 1163, 1164, 1169, 1168
 18, 1164,   17,   18, 1169
 19,   70, 1165, 1170,    4
 20, 1165, 1166, 1171, 1170
 21, 1166, 1167, 1172, 1171
 22, 1167, 1168, 1173, 1172
 23, 1168, 1169, 1174, 1173
 24, 1169,   18,   19, 1174
 25,    4, 1170, 1175,  117
 26, 1170, 1171, 1176, 1175
 27, 1171, 1172, 1177, 1176
 28, 1172, 1173, 1178, 1177
 29, 1173, 1174, 1179, 1178
 30, 1174,   19,   20, 1179
 31,  117, 1175, 1180,  116
 32, 1175, 1176, 1181, 1180
 33, 1176, 1177, 1182, 1181
 34, 1177, 1178, 1183, 1182
 35, 1178, 1179, 1184, 1183
 36, 1179,   20,   21, 1184
 37,  116, 1180, 1185,  115
 38, 1180, 1181, 1186, 1185
 39, 1181, 1182, 1187, 1186
 40, 1182, 1183, 1188, 1187
 41, 1183, 1184, 1189, 1188
 42, 1184,   21,   22, 1189
 43,  115, 1185, 1190,  114
 44, 1185, 1186, 1191, 1190
 45, 1186, 1187, 1192, 1191
 46, 1187, 1188, 1193, 1192
 47, 1188, 1189, 1194, 1193
 48, 1189,   22,   23, 1194
 49,  114, 1190, 1195,  113
 50, 1190, 1191, 1196, 1195
 51, 1191, 1192, 1197, 1196
 52, 1192, 1193, 1198, 1197
 53, 1193, 1194, 1199, 1198
 54, 1194,   23,   24, 1199
 55,  113, 1195, 1200,  112
 56, 1195, 1196, 1201, 1200
 57, 1196, 1197, 1202, 1201
 58, 1197, 1198, 1203, 1202
 59, 1198, 1199, 1204, 1203
 60, 1199,   24,   25, 1204
 61,  112, 1200, 1205,  111
 62, 1200, 1201, 1206, 1205
 63, 1201, 1202, 1207, 1206
 64, 1202, 1203, 1208, 1207
 65, 1203, 1204, 1209, 1208
 66, 1204,   25,   26, 1209
 67,  111, 1205, 1210,  110
 68, 1205, 1206, 1211, 1210
 69, 1206, 1207, 1212, 1211
 70, 1207, 1208, 1213, 1212
 71, 1208, 1209, 1214, 1213
 72, 1209,   26,   27, 1214
 73,  110, 1210, 1215,  109
 74, 1210, 1211, 1216, 1215
 75, 1211, 1212, 1217, 1216
 76, 1212, 1213, 1218, 1217
 77, 1213, 1214, 1219, 1218
 78, 1214,   27,   28, 1219
 79,  109, 1215, 1220,  108
 80, 1215, 1216, 1221, 1220
 81, 1216, 1217, 1222, 1221
 82, 1217, 1218, 1223, 1222
 83, 1218, 1219, 1224, 1223
 84, 1219,   28,   29, 1224
 85,  108, 1220, 1225,  107
 86, 1220, 1221, 1226, 1225
 87, 1221, 1222, 1227, 1226
 88, 1222, 1223, 1228, 1227
 89, 1223, 1224, 1229, 1228
 90, 1224,   29,   30, 1229
 91,  107, 1225, 1230,  106
 92, 1225, 1226, 1231, 1230
 93, 1226, 1227, 1232, 1231
 94, 1227, 1228, 1233, 1232
 95, 1228, 1229, 1234, 1233
 96, 1229,   30,   31, 1234
 97,  106, 1230, 1235,  105
 98, 1230, 1231, 1236, 1235
 99, 1231, 1232, 1237, 1236
100, 1232, 1233, 1238, 1237
101, 1233, 1234, 1239, 1238
102, 1234,   31,   32, 1239
103,  105, 1235, 1240,  104
104, 1235, 1236, 1241, 1240
105, 1236, 1237, 1242, 1241
106, 1237, 1238, 1243, 1242
107, 1238, 1239, 1244, 1243
108, 1239,   32,   33, 1244
109,  104, 1240, 1245,  103
110, 1240, 1241, 1246, 1245
111, 1241, 1242, 1247, 1246
112, 1242, 1243, 1248, 1247
113, 1243, 1244, 1249, 1248
114, 1244,   33,   34, 1249
115,  103, 1245, 1250,  102
116, 1245, 1246, 1251, 1250
117, 1246, 1247, 1252, 1251
118, 1247, 1248, 1253, 1252
119, 1248, 1249, 1254, 1253
120, 1249,   34,   35, 1254
121,  102, 1250, 1255,  101
122, 1250, 1251, 1256, 1255
123, 1251, 1252, 1257, 1256
124, 1252, 1253, 1258, 1257
125, 1253, 1254, 1259, 1258
126, 1254,   35,   36, 1259
127,  101, 1255, 1260,  100
128, 1255, 1256, 1261, 1260
129, 1256, 1257, 1262, 1261
130, 1257, 1258, 1263, 1262
131, 1258, 1259, 1264, 1263
132, 1259,   36,   37, 1264
133,  100, 1260, 1265,   99
134, 1260, 1261, 1266, 1265
135, 1261, 1262, 1267, 1266
136, 1262, 1263, 1268, 1267
137, 1263, 1264, 1269, 1268
138, 1264,   37,   38, 1269
139,   99, 1265, 1270,   98
140, 1265, 1266, 1271, 1270
141, 1266, 1267, 1272, 1271
142, 1267, 1268, 1273, 1272
143, 1268, 1269, 1274, 1273
144, 1269,   38,   39, 1274
145,   98, 1270, 1275,   97
146, 1270, 1271, 1276, 1275
147, 1271, 1272, 1277, 1276
148, 1272, 1273, 1278, 1277
149, 1273, 1274, 1279, 1278
150, 1274,   39,   40, 1279
151,   97, 1275, 1280,   96
152, 1275, 1276, 1281, 1280
153, 1276, 1277, 1282, 1281
154, 1277, 1278, 1283, 1282
155, 1278, 1279, 1284, 1283
156, 1279,   40,   41, 1284
157,   96, 1280, 1285,   95
158, 1280, 1281, 1286, 1285
159, 1281, 1282, 1287, 1286
160, 1282, 1283, 1288, 1287
161, 1283, 1284, 1289, 1288
162, 1284,   41,   42, 1289
163,   95, 1285, 1290,   94
164, 1285, 1286, 1291, 1290
165, 1286, 1287, 1292, 1291
166, 1287, 1288, 1293, 1292
167, 1288, 1289, 1294, 1293
168, 1289,   42,   43, 1294
169,   94, 1290, 1295,   93
170, 1290, 1291, 1296, 1295
171, 1291, 1292, 1297, 1296
172, 1292, 1293, 1298, 1297
173, 1293, 1294, 1299, 1298
174, 1294,   43,   44, 1299
175,   93, 1295, 1300,   92
176, 1295, 1296, 1301, 1300
177, 1296, 1297, 1302, 1301
178, 1297, 1298, 1303, 1302
179, 1298, 1299, 1304, 1303
180, 1299,   44,   45, 1304
181,   92, 1300, 1305,   91
182, 1300, 1301, 1306, 1305
183, 1301, 1302, 1307, 1306
184, 1302, 1303, 1308, 1307
185, 1303, 1304, 1309, 1308
186, 1304,   45,   46, 1309
187,   91, 1305, 1310,   90
188, 1305, 1306, 1311, 1310
189, 1306, 1307, 1312, 1311
190, 1307, 1308, 1313, 1312
191, 1308, 1309, 1314, 1313
192, 1309,   46,   47, 1314
193,   90, 1310, 1315,   89
194, 1310, 1311, 1316, 1315
195, 1311, 1312, 1317, 1316
196, 1312, 1313, 1318, 1317
197, 1313, 1314, 1319, 1318
198, 1314,   47,   48, 1319
199,   89, 1315, 1320,   88
200, 1315, 1316, 1321, 1320
201, 1316, 1317, 1322, 1321
202, 1317, 1318, 1323, 1322
203, 1318, 1319, 1324, 1323
204, 1319,   48,   49, 1324
205,   88, 1320, 1325,   87
206, 1320, 1321, 1326, 1325
207, 1321, 1322, 1327, 1326
208, 1322, 1323, 1328, 1327
209, 1323, 1324, 1329, 1328
210, 1324,   49,   50, 1329
211,   87, 1325, 1330,   86
212, 1325, 1326, 1331, 1330
213, 1326, 1327, 1332, 1331
214, 1327, 1328, 1333, 1332
215, 1328, 1329, 1334, 1333
216, 1329,   50,   51, 1334
217,   86, 1330, 1335,   85
218, 1330, 1331, 1336, 1335
219, 1331, 1332, 1337, 1336
220, 1332, 1333, 1338, 1337
221, 1333, 1334, 1339, 1338
222, 1334,   51,   52, 1339
223,   85, 1335, 1340,   84
224, 1335, 1336, 1341, 1340
225, 1336, 1337, 1342, 1341
226, 1337, 1338, 1343, 1342
227, 1338, 1339, 1344, 1343
228, 1339,   52,   53, 1344
229,   84, 1340, 1345,   83
230, 1340, 1341, 1346, 1345
231, 1341, 1342, 1347, 1346
232, 1342, 1343, 1348, 1347
233, 1343, 1344, 1349, 1348
234, 1344,   53,   54, 1349
235,   83, 1345, 1350,   82
236, 1345, 1346, 1351, 1350
237, 1346, 1347, 1352, 1351
238, 1347, 1348, 1353, 1352
239, 1348, 1349, 1354, 1353
240, 1349,   54,   55, 1354
241,   82, 1350, 1355,   81
242, 1350, 1351, 1356, 1355
243, 1351, 1352, 1357, 1356
244, 1352, 1353, 1358, 1357
245, 1353, 1354, 1359, 1358
246, 1354,   55,   56, 1359
247,   81, 1355, 1360,   80
248, 1355, 1356, 1361, 1360
249, 1356, 1357, 1362, 1361
250, 1357, 1358, 1363, 1362
251, 1358, 1359, 1364, 1363
252, 1359,   56,   57, 1364
253,   80, 1360, 1365,   79
254, 1360, 1361, 1366, 1365
255, 1361, 1362, 1367, 1366
256, 1362, 1363, 1368, 1367
257, 1363, 1364, 1369, 1368
258, 1364,   57,   58, 1369
259,   79, 1365, 1370,   78
260, 1365, 1366, 1371, 1370
261, 1366, 1367, 1372, 1371
262, 1367, 1368, 1373, 1372
263, 1368, 1369, 1374, 1373
264, 1369,   58,   59, 1374
265,   78, 1370, 1375,   77
266, 1370, 1371, 1376, 1375
267, 1371, 1372, 1377, 1376
268, 1372, 1373, 1378, 1377
269, 1373, 1374, 1379, 1378
270, 1374,   59,   60, 1379
271,   77, 1375, 1380,   76
272, 1375, 1376, 1381, 1380
273, 1376, 1377, 1382, 1381
274, 1377, 1378, 1383, 1382
275, 1378, 1379, 1384, 1383
276, 1379,   60,   61, 1384
277,   76, 1380, 1385,   75
278, 1380, 1381, 1386, 1385
279, 1381, 1382, 1387, 1386
280, 1382, 1383, 1388, 1387
281, 1383, 1384, 1389, 1388
282, 1384,   61,   62, 1389
283,   75, 1385, 1390,   74
284, 1385, 1386, 1391, 1390
285, 1386, 1387, 1392, 1391
286, 1387, 1388, 1393, 1392
287, 1388, 1389, 1394, 1393
288, 1389,   62,   63, 1394
289,   74, 1390, 1395,   73
290, 1390, 1391, 1396, 1395
291, 1391, 1392, 1397, 1396
292, 1392, 1393, 1398, 1397
293, 1393, 1394, 1399, 1398
294, 1394,   63,   64, 1399
295,   73, 1395,   69,    5
296, 1395, 1396,   68,   69
297, 1396, 1397,   67,   68
298, 1397, 1398,   66,   67
299, 1398, 1399,   65,   66
300, 1399,   64,    3,   65
301,    6,  118, 1400,  152
302,  118,  119, 1401, 1400
303,  119,  120, 1402, 1401
304,  120,  121, 1403, 1402
305,  121,  122, 1404, 1403
306,  122,    7,  123, 1404
307,  152, 1400, 1405,  151
308, 1400, 1401, 1406, 1405
309, 1401, 1402, 1407, 1406
310, 1402, 1403, 1408, 1407
311, 1403, 1404, 1409, 1408
312, 1404,  123,  124, 1409
313,  151, 1405, 1410,  150
314, 1405, 1406, 1411, 1410
315, 1406, 1407, 1412, 1411
316, 1407, 1408, 1413, 1412
317, 1408, 1409, 1414, 1413
318, 1409,  124,  125, 1414
319,  150, 1410, 1415,  149
320, 1410, 1411, 1416, 1415
321, 1411, 1412, 1417, 1416
322, 1412, 1413, 1418, 1417
323, 1413, 1414, 1419, 1418
324, 1414,  125,  126, 1419
325,  149, 1415, 1420,  148
326, 1415, 1416, 1421, 1420
327, 1416, 1417, 1422, 1421
328, 1417, 1418, 1423, 1422
329, 1418, 1419, 1424, 1423
330, 1419,  126,  127, 1424
331,  148, 1420, 1425,  147
332, 1420, 1421, 1426, 1425
333, 1421, 1422, 1427, 1426
334, 1422, 1423, 1428, 1427
335, 1423, 1424, 1429, 1428
336, 1424,  127,  128, 1429
337,  147, 1425, 1430,  146
338, 1425, 1426, 1431, 1430
339, 1426, 1427, 1432, 1431
340, 1427, 1428, 1433, 1432
341, 1428, 1429, 1434, 1433
342, 1429,  128,  129, 1434
343,  146, 1430, 1435,  145
344, 1430, 1431, 1436, 1435
345, 1431, 1432, 1437, 1436
346, 1432, 1433, 1438, 1437
347, 1433, 1434, 1439, 1438
348, 1434,  129,  130, 1439
349,  145, 1435, 1440,  144
350, 1435, 1436, 1441, 1440
351, 1436, 1437, 1442, 1441
352, 1437, 1438, 1443, 1442
353, 1438, 1439, 1444, 1443
354, 1439,  130,  131, 1444
355,  144, 1440, 1445,  143
356, 1440, 1441, 1446, 1445
357, 1441, 1442, 1447, 1446
358, 1442, 1443, 1448, 1447
359, 1443, 1444, 1449, 1448
360, 1444,  131,  132, 1449
361,  143, 1445, 1450,  142
362, 1445, 1446, 1451, 1450
363, 1446, 1447, 1452, 1451
364, 1447, 1448, 1453, 1452
365, 1448, 1449, 1454, 1453
366, 1449,  132,  133, 1454
367,  142, 1450, 1455,  141
368, 1450, 1451, 1456, 1455
369, 1451, 1452, 1457, 1456
370, 1452, 1453, 1458, 1457
371, 1453, 1454, 1459, 1458
372, 1454,  133,  134, 1459
373,  141, 1455, 1460,  140
374, 1455, 1456, 1461, 1460
375, 1456, 1457, 1462, 1461
376, 1457, 1458, 1463, 1462
377, 1458, 1459, 1464, 1463
378, 1459,  134,  135, 1464
379,  140, 1460, 1465,  139
380, 1460, 1461, 1466, 1465
381, 1461, 1462, 1467, 1466
382, 1462, 1463, 1468, 1467
383, 1463, 1464, 1469, 1468
384, 1464,  135,  136, 1469
385,  139, 1465, 1470,  138
386, 1465, 1466, 1471, 1470
387, 1466, 1467, 1472, 1471
388, 1467, 1468, 1473, 1472
389, 1468, 1469, 1474, 1473
390, 1469,  136,  137, 1474
391,  138, 1470,   11,    1
392, 1470, 1471,   12,   11
393, 1471, 1472,   13,   12
394, 1472, 1473,   14,   13
395, 1473, 1474,   15,   14
396, 1474,  137,    2,   15
 397,    7,  122, 1475, 1154
 398,  122,  121, 1476, 1475
 399,  121,  120, 1477, 1476
 400,  120,  119, 1478, 1477
 401,  119,  118, 1479, 1478
 402,  118,    6,  153, 1479
 403, 1154, 1475, 1480, 1153
 404, 1475, 1476, 1481, 1480
 405, 1476, 1477, 1482, 1481
 406, 1477, 1478, 1483, 1482
 407, 1478, 1479, 1484, 1483
 408, 1479,  153,  154, 1484
 409, 1153, 1480, 1485, 1152
 410, 1480, 1481, 1486, 1485
 411, 1481, 1482, 1487, 1486
 412, 1482, 1483, 1488, 1487
 413, 1483, 1484, 1489, 1488
 414, 1484,  154,  155, 1489
 415, 1152, 1485, 1490, 1151
 416, 1485, 1486, 1491, 1490
 417, 1486, 1487, 1492, 1491
 418, 1487, 1488, 1493, 1492
 419, 1488, 1489, 1494, 1493
 420, 1489,  155,    8, 1494
 421, 1151, 1490, 1495, 1150
 422, 1490, 1491, 1496, 1495
 423, 1491, 1492, 1497, 1496
 424, 1492, 1493, 1498, 1497
 425, 1493, 1494, 1499, 1498
 426, 1494,    8,  156, 1499
 427, 1150, 1495, 1500, 1149
 428, 1495, 1496, 1501, 1500
 429, 1496, 1497, 1502, 1501
 430, 1497, 1498, 1503, 1502
 431, 1498, 1499, 1504, 1503
 432, 1499,  156,  157, 1504
 433, 1149, 1500, 1505, 1148
 434, 1500, 1501, 1506, 1505
 435, 1501, 1502, 1507, 1506
 436, 1502, 1503, 1508, 1507
 437, 1503, 1504, 1509, 1508
 438, 1504,  157,  158, 1509
 439, 1148, 1505, 1510, 1147
 440, 1505, 1506, 1511, 1510
 441, 1506, 1507, 1512, 1511
 442, 1507, 1508, 1513, 1512
 443, 1508, 1509, 1514, 1513
 444, 1509,  158,  159, 1514
 445, 1147, 1510, 1515, 1146
 446, 1510, 1511, 1516, 1515
 447, 1511, 1512, 1517, 1516
 448, 1512, 1513, 1518, 1517
 449, 1513, 1514, 1519, 1518
 450, 1514,  159,  160, 1519
 451, 1146, 1515, 1520, 1145
 452, 1515, 1516, 1521, 1520
 453, 1516, 1517, 1522, 1521
 454, 1517, 1518, 1523, 1522
 455, 1518, 1519, 1524, 1523
 456, 1519,  160,  161, 1524
 457, 1145, 1520, 1525, 1144
 458, 1520, 1521, 1526, 1525
 459, 1521, 1522, 1527, 1526
 460, 1522, 1523, 1528, 1527
 461, 1523, 1524, 1529, 1528
 462, 1524,  161,  162, 1529
 463, 1144, 1525, 1530, 1143
 464, 1525, 1526, 1531, 1530
 465, 1526, 1527, 1532, 1531
 466, 1527, 1528, 1533, 1532
 467, 1528, 1529, 1534, 1533
 468, 1529,  162,  163, 1534
 469, 1143, 1530, 1535, 1142
 470, 1530, 1531, 1536, 1535
 471, 1531, 1532, 1537, 1536
 472, 1532, 1533, 1538, 1537
 473, 1533, 1534, 1539, 1538
 474, 1534,  163,  164, 1539
 475, 1142, 1535, 1540, 1141
 476, 1535, 1536, 1541, 1540
 477, 1536, 1537, 1542, 1541
 478, 1537, 1538, 1543, 1542
 479, 1538, 1539, 1544, 1543
 480, 1539,  164,  165, 1544
 481, 1141, 1540, 1545, 1140
 482, 1540, 1541, 1546, 1545
 483, 1541, 1542, 1547, 1546
 484, 1542, 1543, 1548, 1547
 485, 1543, 1544, 1549, 1548
 486, 1544,  165,  166, 1549
 487, 1140, 1545, 1550, 1139
 488, 1545, 1546, 1551, 1550
 489, 1546, 1547, 1552, 1551
 490, 1547, 1548, 1553, 1552
 491, 1548, 1549, 1554, 1553
 492, 1549,  166,  167, 1554
 493, 1139, 1550, 1555, 1138
 494, 1550, 1551, 1556, 1555
 495, 1551, 1552, 1557, 1556
 496, 1552, 1553, 1558, 1557
 497, 1553, 1554, 1559, 1558
 498, 1554,  167,  168, 1559
 499, 1138, 1555, 1560, 1137
 500, 1555, 1556, 1561, 1560
 501, 1556, 1557, 1562, 1561
 502, 1557, 1558, 1563, 1562
 503, 1558, 1559, 1564, 1563
 504, 1559,  168,  169, 1564
 505, 1137, 1560, 1565, 1136
 506, 1560, 1561, 1566, 1565
 507, 1561, 1562, 1567, 1566
 508, 1562, 1563, 1568, 1567
 509, 1563, 1564, 1569, 1568
 510, 1564,  169,  170, 1569
 511, 1136, 1565, 1570, 1135
 512, 1565, 1566, 1571, 1570
 513, 1566, 1567, 1572, 1571
 514, 1567, 1568, 1573, 1572
 515, 1568, 1569, 1574, 1573
 516, 1569,  170,  171, 1574
 517, 1135, 1570, 1575, 1134
 518, 1570, 1571, 1576, 1575
 519, 1571, 1572, 1577, 1576
 520, 1572, 1573, 1578, 1577
 521, 1573, 1574, 1579, 1578
 522, 1574,  171,  172, 1579
 523, 1134, 1575, 1580, 1133
 524, 1575, 1576, 1581, 1580
 525, 1576, 1577, 1582, 1581
 526, 1577, 1578, 1583, 1582
 527, 1578, 1579, 1584, 1583
 528, 1579,  172,  173, 1584
 529, 1133, 1580, 1585, 1132
 530, 1580, 1581, 1586, 1585
 531, 1581, 1582, 1587, 1586
 532, 1582, 1583, 1588, 1587
 533, 1583, 1584, 1589, 1588
 534, 1584,  173,  174, 1589
 535, 1132, 1585, 1590, 1131
 536, 1585, 1586, 1591, 1590
 537, 1586, 1587, 1592, 1591
 538, 1587, 1588, 1593, 1592
 539, 1588, 1589, 1594, 1593
 540, 1589,  174,  175, 1594
 541, 1131, 1590, 1595, 1130
 542, 1590, 1591, 1596, 1595
 543, 1591, 1592, 1597, 1596
 544, 1592, 1593, 1598, 1597
 545, 1593, 1594, 1599, 1598
 546, 1594,  175,  176, 1599
 547, 1130, 1595, 1600, 1129
 548, 1595, 1596, 1601, 1600
 549, 1596, 1597, 1602, 1601
 550, 1597, 1598, 1603, 1602
 551, 1598, 1599, 1604, 1603
 552, 1599,  176,  177, 1604
 553, 1129, 1600, 1605, 1128
 554, 1600, 1601, 1606, 1605
 555, 1601, 1602, 1607, 1606
 556, 1602, 1603, 1608, 1607
 557, 1603, 1604, 1609, 1608
 558, 1604,  177,  178, 1609
 559, 1128, 1605, 1610, 1127
 560, 1605, 1606, 1611, 1610
 561, 1606, 1607, 1612, 1611
 562, 1607, 1608, 1613, 1612
 563, 1608, 1609, 1614, 1613
 564, 1609,  178,  179, 1614
 565, 1127, 1610, 1615, 1126
 566, 1610, 1611, 1616, 1615
 567, 1611, 1612, 1617, 1616
 568, 1612, 1613, 1618, 1617
 569, 1613, 1614, 1619, 1618
 570, 1614,  179,  180, 1619
 571, 1126, 1615, 1620, 1125
 572, 1615, 1616, 1621, 1620
 573, 1616, 1617, 1622, 1621
 574, 1617, 1618, 1623, 1622
 575, 1618, 1619, 1624, 1623
 576, 1619,  180,  181, 1624
 577, 1125, 1620, 1625, 1124
 578, 1620, 1621, 1626, 1625
 579, 1621, 1622, 1627, 1626
 580, 1622, 1623, 1628, 1627
 581, 1623, 1624, 1629, 1628
 582, 1624,  181,  182, 1629
 583, 1124, 1625, 1630, 1123
 584, 1625, 1626, 1631, 1630
 585, 1626, 1627, 1632, 1631
 586, 1627, 1628, 1633, 1632
 587, 1628, 1629, 1634, 1633
 588, 1629,  182,  183, 1634
 589, 1123, 1630, 1635, 1122
 590, 1630, 1631, 1636, 1635
 591, 1631, 1632, 1637, 1636
 592, 1632, 1633, 1638, 1637
 593, 1633, 1634, 1639, 1638
 594, 1634,  183,  184, 1639
 595, 1122, 1635, 1640, 1121
 596, 1635, 1636, 1641, 1640
 597, 1636, 1637, 1642, 1641
 598, 1637, 1638, 1643, 1642
 599, 1638, 1639, 1644, 1643
 600, 1639,  184,  185, 1644
 601, 1121, 1640, 1645, 1120
 602, 1640, 1641, 1646, 1645
 603, 1641, 1642, 1647, 1646
 604, 1642, 1643, 1648, 1647
 605, 1643, 1644, 1649, 1648
 606, 1644,  185,  186, 1649
 607, 1120, 1645, 1650, 1119
 608, 1645, 1646, 1651, 1650
 609, 1646, 1647, 1652, 1651
 610, 1647, 1648, 1653, 1652
 611, 1648, 1649, 1654, 1653
 612, 1649,  186,  187, 1654
 613, 1119, 1650, 1655, 1118
 614, 1650, 1651, 1656, 1655
 615, 1651, 1652, 1657, 1656
 616, 1652, 1653, 1658, 1657
 617, 1653, 1654, 1659, 1658
 618, 1654,  187,  188, 1659
 619, 1118, 1655, 1660, 1117
 620, 1655, 1656, 1661, 1660
 621, 1656, 1657, 1662, 1661
 622, 1657, 1658, 1663, 1662
 623, 1658, 1659, 1664, 1663
 624, 1659,  188,  189, 1664
 625, 1117, 1660, 1665, 1116
 626, 1660, 1661, 1666, 1665
 627, 1661, 1662, 1667, 1666
 628, 1662, 1663, 1668, 1667
 629, 1663, 1664, 1669, 1668
 630, 1664,  189,  190, 1669
 631, 1116, 1665, 1670, 1115
 632, 1665, 1666, 1671, 1670
 633, 1666, 1667, 1672, 1671
 634, 1667, 1668, 1673, 1672
 635, 1668, 1669, 1674, 1673
 636, 1669,  190,  191, 1674
 637, 1115, 1670, 1675, 1114
 638, 1670, 1671, 1676, 1675
 639, 1671, 1672, 1677, 1676
 640, 1672, 1673, 1678, 1677
 641, 1673, 1674, 1679, 1678
 642, 1674,  191,  192, 1679
 643, 1114, 1675, 1680, 1113
 644, 1675, 1676, 1681, 1680
 645, 1676, 1677, 1682, 1681
 646, 1677, 1678, 1683, 1682
 647, 1678, 1679, 1684, 1683
 648, 1679,  192,  193, 1684
 649, 1113, 1680, 1685, 1112
 650, 1680, 1681, 1686, 1685
 651, 1681, 1682, 1687, 1686
 652, 1682, 1683, 1688, 1687
 653, 1683, 1684, 1689, 1688
 654, 1684,  193,  194, 1689
 655, 1112, 1685, 1690, 1111
 656, 1685, 1686, 1691, 1690
 657, 1686, 1687, 1692, 1691
 658, 1687, 1688, 1693, 1692
 659, 1688, 1689, 1694, 1693
 660, 1689,  194,  195, 1694
 661, 1111, 1690, 1695, 1110
 662, 1690, 1691, 1696, 1695
 663, 1691, 1692, 1697, 1696
 664, 1692, 1693, 1698, 1697
 665, 1693, 1694, 1699, 1698
 666, 1694,  195,  196, 1699
 667, 1110, 1695, 1700, 1109
 668, 1695, 1696, 1701, 1700
 669, 1696, 1697, 1702, 1701
 670, 1697, 1698, 1703, 1702
 671, 1698, 1699, 1704, 1703
 672, 1699,  196,  197, 1704
 673, 1109, 1700, 1705, 1108
 674, 1700, 1701, 1706, 1705
 675, 1701, 1702, 1707, 1706
 676, 1702, 1703, 1708, 1707
 677, 1703, 1704, 1709, 1708
 678, 1704,  197,  198, 1709
 679, 1108, 1705, 1710, 1107
 680, 1705, 1706, 1711, 1710
 681, 1706, 1707, 1712, 1711
 682, 1707, 1708, 1713, 1712
 683, 1708, 1709, 1714, 1713
 684, 1709,  198,  199, 1714
 685, 1107, 1710, 1715, 1106
 686, 1710, 1711, 1716, 1715
 687, 1711, 1712, 1717, 1716
 688, 1712, 1713, 1718, 1717
 689, 1713, 1714, 1719, 1718
 690, 1714,  199,  200, 1719
 691, 1106, 1715, 1720, 1105
 692, 1715, 1716, 1721, 1720
 693, 1716, 1717, 1722, 1721
 694, 1717, 1718, 1723, 1722
 695, 1718, 1719, 1724, 1723
 696, 1719,  200,  201, 1724
 697, 1105, 1720, 1725, 1104
 698, 1720, 1721, 1726, 1725
 699, 1721, 1722, 1727, 1726
 700, 1722, 1723, 1728, 1727
 701, 1723, 1724, 1729, 1728
 702, 1724,  201,  202, 1729
 703, 1104, 1725, 1730, 1103
 704, 1725, 1726, 1731, 1730
 705, 1726, 1727, 1732, 1731
 706, 1727, 1728, 1733, 1732
 707, 1728, 1729, 1734, 1733
 708, 1729,  202,  203, 1734
 709, 1103, 1730, 1735, 1102
 710, 1730, 1731, 1736, 1735
 711, 1731, 1732, 1737, 1736
 712, 1732, 1733, 1738, 1737
 713, 1733, 1734, 1739, 1738
 714, 1734,  203,  204, 1739
 715, 1102, 1735, 1740, 1101
 716, 1735, 1736, 1741, 1740
 717, 1736, 1737, 1742, 1741
 718, 1737, 1738, 1743, 1742
 719, 1738, 1739, 1744, 1743
 720, 1739,  204,  205, 1744
 721, 1101, 1740, 1745, 1100
 722, 1740, 1741, 1746, 1745
 723, 1741, 1742, 1747, 1746
 724, 1742, 1743, 1748, 1747
 725, 1743, 1744, 1749, 1748
 726, 1744,  205,  206, 1749
 727, 1100, 1745, 1750, 1099
 728, 1745, 1746, 1751, 1750
 729, 1746, 1747, 1752, 1751
 730, 1747, 1748, 1753, 1752
 731, 1748, 1749, 1754, 1753
 732, 1749,  206,  207, 1754
 733, 1099, 1750, 1755, 1098
 734, 1750, 1751, 1756, 1755
 735, 1751, 1752, 1757, 1756
 736, 1752, 1753, 1758, 1757
 737, 1753, 1754, 1759, 1758
 738, 1754,  207,  208, 1759
 739, 1098, 1755, 1760, 1097
 740, 1755, 1756, 1761, 1760
 741, 1756, 1757, 1762, 1761
 742, 1757, 1758, 1763, 1762
 743, 1758, 1759, 1764, 1763
 744, 1759,  208,  209, 1764
 745, 1097, 1760, 1765, 1096
 746, 1760, 1761, 1766, 1765
 747, 1761, 1762, 1767, 1766
 748, 1762, 1763, 1768, 1767
 749, 1763, 1764, 1769, 1768
 750, 1764,  209,  210, 1769
 751, 1096, 1765, 1770, 1095
 752, 1765, 1766, 1771, 1770
 753, 1766, 1767, 1772, 1771
 754, 1767, 1768, 1773, 1772
 755, 1768, 1769, 1774, 1773
 756, 1769,  210,  211, 1774
 757, 1095, 1770, 1775, 1094
 758, 1770, 1771, 1776, 1775
 759, 1771, 1772, 1777, 1776
 760, 1772, 1773, 1778, 1777
 761, 1773, 1774, 1779, 1778
 762, 1774,  211,  212, 1779
 763, 1094, 1775, 1780, 1093
 764, 1775, 1776, 1781, 1780
 765, 1776, 1777, 1782, 1781
 766, 1777, 1778, 1783, 1782
 767, 1778, 1779, 1784, 1783
 768, 1779,  212,  213, 1784
 769, 1093, 1780, 1785, 1092
 770, 1780, 1781, 1786, 1785
 771, 1781, 1782, 1787, 1786
 772, 1782, 1783, 1788, 1787
 773, 1783, 1784, 1789, 1788
 774, 1784,  213,  214, 1789
 775, 1092, 1785, 1790, 1091
 776, 1785, 1786, 1791, 1790
 777, 1786, 1787, 1792, 1791
 778, 1787, 1788, 1793, 1792
 779, 1788, 1789, 1794, 1793
 780, 1789,  214,  215, 1794
 781, 1091, 1790, 1795, 1090
 782, 1790, 1791, 1796, 1795
 783, 1791, 1792, 1797, 1796
 784, 1792, 1793, 1798, 1797
 785, 1793, 1794, 1799, 1798
 786, 1794,  215,  216, 1799
 787, 1090, 1795, 1800, 1089
 788, 1795, 1796, 1801, 1800
 789, 1796, 1797, 1802, 1801
 790, 1797, 1798, 1803, 1802
 791, 1798, 1799, 1804, 1803
 792, 1799,  216,  217, 1804
 793, 1089, 1800, 1805, 1088
 794, 1800, 1801, 1806, 1805
 795, 1801, 1802, 1807, 1806
 796, 1802, 1803, 1808, 1807
 797, 1803, 1804, 1809, 1808
 798, 1804,  217,  218, 1809
 799, 1088, 1805, 1810, 1087
 800, 1805, 1806, 1811, 1810
 801, 1806, 1807, 1812, 1811
 802, 1807, 1808, 1813, 1812
 803, 1808, 1809, 1814, 1813
 804, 1809,  218,  219, 1814
 805, 1087, 1810, 1815, 1086
 806, 1810, 1811, 1816, 1815
 807, 1811, 1812, 1817, 1816
 808, 1812, 1813, 1818, 1817
 809, 1813, 1814, 1819, 1818
 810, 1814,  219,  220, 1819
 811, 1086, 1815, 1820, 1085
 812, 1815, 1816, 1821, 1820
 813, 1816, 1817, 1822, 1821
 814, 1817, 1818, 1823, 1822
 815, 1818, 1819, 1824, 1823
 816, 1819,  220,  221, 1824
 817, 1085, 1820, 1825, 1084
 818, 1820, 1821, 1826, 1825
 819, 1821, 1822, 1827, 1826
 820, 1822, 1823, 1828, 1827
 821, 1823, 1824, 1829, 1828
 822, 1824,  221,  222, 1829
 823, 1084, 1825, 1830, 1083
 824, 1825, 1826, 1831, 1830
 825, 1826, 1827, 1832, 1831
 826, 1827, 1828, 1833, 1832
 827, 1828, 1829, 1834, 1833
 828, 1829,  222,  223, 1834
 829, 1083, 1830, 1835, 1082
 830, 1830, 1831, 1836, 1835
 831, 1831, 1832, 1837, 1836
 832, 1832, 1833, 1838, 1837
 833, 1833, 1834, 1839, 1838
 834, 1834,  223,  224, 1839
 835, 1082, 1835, 1840, 1081
 836, 1835, 1836, 1841, 1840
 837, 1836, 1837, 1842, 1841
 838, 1837, 1838, 1843, 1842
 839, 1838, 1839, 1844, 1843
 840, 1839,  224,  225, 1844
 841, 1081, 1840, 1845, 1080
 842, 1840, 1841, 1846, 1845
 843, 1841, 1842, 1847, 1846
 844, 1842, 1843, 1848, 1847
 845, 1843, 1844, 1849, 1848
 846, 1844,  225,  226, 1849
 847, 1080, 1845, 1850, 1079
 848, 1845, 1846, 1851, 1850
 849, 1846, 1847, 1852, 1851
 850, 1847, 1848, 1853, 1852
 851, 1848, 1849, 1854, 1853
 852, 1849,  226,  227, 1854
 853, 1079, 1850, 1855, 1078
 854, 1850, 1851, 1856, 1855
 855, 1851, 1852, 1857, 1856
 856, 1852, 1853, 1858, 1857
 857, 1853, 1854, 1859, 1858
 858, 1854,  227,  228, 1859
 859, 1078, 1855, 1860, 1077
 860, 1855, 1856, 1861, 1860
 861, 1856, 1857, 1862, 1861
 862, 1857, 1858, 1863, 1862
 863, 1858, 1859, 1864, 1863
 864, 1859,  228,  229, 1864
 865, 1077, 1860, 1865, 1076
 866, 1860, 1861, 1866, 1865
 867, 1861, 1862, 1867, 1866
 868, 1862, 1863, 1868, 1867
 869, 1863, 1864, 1869, 1868
 870, 1864,  229,  230, 1869
 871, 1076, 1865, 1870, 1075
 872, 1865, 1866, 1871, 1870
 873, 1866, 1867, 1872, 1871
 874, 1867, 1868, 1873, 1872
 875, 1868, 1869, 1874, 1873
 876, 1869,  230,  231, 1874
 877, 1075, 1870, 1875, 1074
 878, 1870, 1871, 1876, 1875
 879, 1871, 1872, 1877, 1876
 880, 1872, 1873, 1878, 1877
 881, 1873, 1874, 1879, 1878
 882, 1874,  231,  232, 1879
 883, 1074, 1875, 1880, 1073
 884, 1875, 1876, 1881, 1880
 885, 1876, 1877, 1882, 1881
 886, 1877, 1878, 1883, 1882
 887, 1878, 1879, 1884, 1883
 888, 1879,  232,  233, 1884
 889, 1073, 1880, 1885, 1072
 890, 1880, 1881, 1886, 1885
 891, 1881, 1882, 1887, 1886
 892, 1882, 1883, 1888, 1887
 893, 1883, 1884, 1889, 1888
 894, 1884,  233,  234, 1889
 895, 1072, 1885, 1890, 1071
 896, 1885, 1886, 1891, 1890
 897, 1886, 1887, 1892, 1891
 898, 1887, 1888, 1893, 1892
 899, 1888, 1889, 1894, 1893
 900, 1889,  234,  235, 1894
 901, 1071, 1890, 1895, 1070
 902, 1890, 1891, 1896, 1895
 903, 1891, 1892, 1897, 1896
 904, 1892, 1893, 1898, 1897
 905, 1893, 1894, 1899, 1898
 906, 1894,  235,  236, 1899
 907, 1070, 1895, 1900, 1069
 908, 1895, 1896, 1901, 1900
 909, 1896, 1897, 1902, 1901
 910, 1897, 1898, 1903, 1902
 911, 1898, 1899, 1904, 1903
 912, 1899,  236,  237, 1904
 913, 1069, 1900, 1905, 1068
 914, 1900, 1901, 1906, 1905
 915, 1901, 1902, 1907, 1906
 916, 1902, 1903, 1908, 1907
 917, 1903, 1904, 1909, 1908
 918, 1904,  237,  238, 1909
 919, 1068, 1905, 1910, 1067
 920, 1905, 1906, 1911, 1910
 921, 1906, 1907, 1912, 1911
 922, 1907, 1908, 1913, 1912
 923, 1908, 1909, 1914, 1913
 924, 1909,  238,  239, 1914
 925, 1067, 1910, 1915, 1066
 926, 1910, 1911, 1916, 1915
 927, 1911, 1912, 1917, 1916
 928, 1912, 1913, 1918, 1917
 929, 1913, 1914, 1919, 1918
 930, 1914,  239,  240, 1919
 931, 1066, 1915, 1920, 1065
 932, 1915, 1916, 1921, 1920
 933, 1916, 1917, 1922, 1921
 934, 1917, 1918, 1923, 1922
 935, 1918, 1919, 1924, 1923
 936, 1919,  240,  241, 1924
 937, 1065, 1920, 1925, 1064
 938, 1920, 1921, 1926, 1925
 939, 1921, 1922, 1927, 1926
 940, 1922, 1923, 1928, 1927
 941, 1923, 1924, 1929, 1928
 942, 1924,  241,  242, 1929
 943, 1064, 1925, 1930, 1063
 944, 1925, 1926, 1931, 1930
 945, 1926, 1927, 1932, 1931
 946, 1927, 1928, 1933, 1932
 947, 1928, 1929, 1934, 1933
 948, 1929,  242,  243, 1934
 949, 1063, 1930, 1935, 1062
 950, 1930, 1931, 1936, 1935
 951, 1931, 1932, 1937, 1936
 952, 1932, 1933, 1938, 1937
 953, 1933, 1934, 1939, 1938
 954, 1934,  243,  244, 1939
 955, 1062, 1935, 1940, 1061
 956, 1935, 1936, 1941, 1940
 957, 1936, 1937, 1942, 1941
 958, 1937, 1938, 1943, 1942
 959, 1938, 1939, 1944, 1943
 960, 1939,  244,  245, 1944
 961, 1061, 1940, 1945, 1060
 962, 1940, 1941, 1946, 1945
 963, 1941, 1942, 1947, 1946
 964, 1942, 1943, 1948, 1947
 965, 1943, 1944, 1949, 1948
 966, 1944,  245,  246, 1949
 967, 1060, 1945, 1950, 1059
 968, 1945, 1946, 1951, 1950
 969, 1946, 1947, 1952, 1951
 970, 1947, 1948, 1953, 1952
 971, 1948, 1949, 1954, 1953
 972, 1949,  246,  247, 1954
 973, 1059, 1950, 1955, 1058
 974, 1950, 1951, 1956, 1955
 975, 1951, 1952, 1957, 1956
 976, 1952, 1953, 1958, 1957
 977, 1953, 1954, 1959, 1958
 978, 1954,  247,  248, 1959
 979, 1058, 1955, 1960, 1057
 980, 1955, 1956, 1961, 1960
 981, 1956, 1957, 1962, 1961
 982, 1957, 1958, 1963, 1962
 983, 1958, 1959, 1964, 1963
 984, 1959,  248,  249, 1964
 985, 1057, 1960, 1965, 1056
 986, 1960, 1961, 1966, 1965
 987, 1961, 1962, 1967, 1966
 988, 1962, 1963, 1968, 1967
 989, 1963, 1964, 1969, 1968
 990, 1964,  249,  250, 1969
 991, 1056, 1965, 1970, 1055
 992, 1965, 1966, 1971, 1970
 993, 1966, 1967, 1972, 1971
 994, 1967, 1968, 1973, 1972
 995, 1968, 1969, 1974, 1973
 996, 1969,  250,  251, 1974
 997, 1055, 1970, 1975, 1054
 998, 1970, 1971, 1976, 1975
 999, 1971, 1972, 1977, 1976
1000, 1972, 1973, 1978, 1977
1001, 1973, 1974, 1979, 1978
1002, 1974,  251,  252, 1979
1003, 1054, 1975, 1980, 1053
1004, 1975, 1976, 1981, 1980
1005, 1976, 1977, 1982, 1981
1006, 1977, 1978, 1983, 1982
1007, 1978, 1979, 1984, 1983
1008, 1979,  252,  253, 1984
1009, 1053, 1980, 1985, 1052
1010, 1980, 1981, 1986, 1985
1011, 1981, 1982, 1987, 1986
1012, 1982, 1983, 1988, 1987
1013, 1983, 1984, 1989, 1988
1014, 1984,  253,  254, 1989
1015, 1052, 1985, 1990, 1051
1016, 1985, 1986, 1991, 1990
1017, 1986, 1987, 1992, 1991
1018, 1987, 1988, 1993, 1992
1019, 1988, 1989, 1994, 1993
1020, 1989,  254,  255, 1994
1021, 1051, 1990, 1995, 1050
1022, 1990, 1991, 1996, 1995
1023, 1991, 1992, 1997, 1996
1024, 1992, 1993, 1998, 1997
1025, 1993, 1994, 1999, 1998
1026, 1994,  255,  256, 1999
1027, 1050, 1995, 2000, 1049
1028, 1995, 1996, 2001, 2000
1029, 1996, 1997, 2002, 2001
1030, 1997, 1998, 2003, 2002
1031, 1998, 1999, 2004, 2003
1032, 1999,  256,  257, 2004
1033, 1049, 2000, 2005, 1048
1034, 2000, 2001, 2006, 2005
1035, 2001, 2002, 2007, 2006
1036, 2002, 2003, 2008, 2007
1037, 2003, 2004, 2009, 2008
1038, 2004,  257,  258, 2009
1039, 1048, 2005, 2010, 1047
1040, 2005, 2006, 2011, 2010
1041, 2006, 2007, 2012, 2011
1042, 2007, 2008, 2013, 2012
1043, 2008, 2009, 2014, 2013
1044, 2009,  258,  259, 2014
1045, 1047, 2010, 2015, 1046
1046, 2010, 2011, 2016, 2015
1047, 2011, 2012, 2017, 2016
1048, 2012, 2013, 2018, 2017
1049, 2013, 2014, 2019, 2018
1050, 2014,  259,  260, 2019
1051, 1046, 2015, 2020, 1045
1052, 2015, 2016, 2021, 2020
1053, 2016, 2017, 2022, 2021
1054, 2017, 2018, 2023, 2022
1055, 2018, 2019, 2024, 2023
1056, 2019,  260,  261, 2024
1057, 1045, 2020, 2025, 1044
1058, 2020, 2021, 2026, 2025
1059, 2021, 2022, 2027, 2026
1060, 2022, 2023, 2028, 2027
1061, 2023, 2024, 2029, 2028
1062, 2024,  261,  262, 2029
1063, 1044, 2025, 2030, 1043
1064, 2025, 2026, 2031, 2030
1065, 2026, 2027, 2032, 2031
1066, 2027, 2028, 2033, 2032
1067, 2028, 2029, 2034, 2033
1068, 2029,  262,  263, 2034
1069, 1043, 2030, 2035, 1042
1070, 2030, 2031, 2036, 2035
1071, 2031, 2032, 2037, 2036
1072, 2032, 2033, 2038, 2037
1073, 2033, 2034, 2039, 2038
1074, 2034,  263,  264, 2039
1075, 1042, 2035, 2040, 1041
1076, 2035, 2036, 2041, 2040
1077, 2036, 2037, 2042, 2041
1078, 2037, 2038, 2043, 2042
1079, 2038, 2039, 2044, 2043
1080, 2039,  264,  265, 2044
1081, 1041, 2040, 2045, 1040
1082, 2040, 2041, 2046, 2045
1083, 2041, 2042, 2047, 2046
1084, 2042, 2043, 2048, 2047
1085, 2043, 2044, 2049, 2048
1086, 2044,  265,  266, 2049
1087, 1040, 2045, 2050, 1039
1088, 2045, 2046, 2051, 2050
1089, 2046, 2047, 2052, 2051
1090, 2047, 2048, 2053, 2052
1091, 2048, 2049, 2054, 2053
1092, 2049,  266,  267, 2054
1093, 1039, 2050, 2055, 1038
1094, 2050, 2051, 2056, 2055
1095, 2051, 2052, 2057, 2056
1096, 2052, 2053, 2058, 2057
1097, 2053, 2054, 2059, 2058
1098, 2054,  267,  268, 2059
1099, 1038, 2055, 2060, 1037
1100, 2055, 2056, 2061, 2060
1101, 2056, 2057, 2062, 2061
1102, 2057, 2058, 2063, 2062
1103, 2058, 2059, 2064, 2063
1104, 2059,  268,  269, 2064
1105, 1037, 2060, 2065, 1036
1106, 2060, 2061, 2066, 2065
1107, 2061, 2062, 2067, 2066
1108, 2062, 2063, 2068, 2067
1109, 2063, 2064, 2069, 2068
1110, 2064,  269,  270, 2069
1111, 1036, 2065, 2070, 1035
1112, 2065, 2066, 2071, 2070
1113, 2066, 2067, 2072, 2071
1114, 2067, 2068, 2073, 2072
1115, 2068, 2069, 2074, 2073
1116, 2069,  270,  271, 2074
1117, 1035, 2070, 2075, 1034
1118, 2070, 2071, 2076, 2075
1119, 2071, 2072, 2077, 2076
1120, 2072, 2073, 2078, 2077
1121, 2073, 2074, 2079, 2078
1122, 2074,  271,  272, 2079
1123, 1034, 2075, 2080, 1033
1124, 2075, 2076, 2081, 2080
1125, 2076, 2077, 2082, 2081
1126, 2077, 2078, 2083, 2082
1127, 2078, 2079, 2084, 2083
1128, 2079,  272,  273, 2084
1129, 1033, 2080, 2085, 1032
1130, 2080, 2081, 2086, 2085
1131, 2081, 2082, 2087, 2086
1132, 2082, 2083, 2088, 2087
1133, 2083, 2084, 2089, 2088
1134, 2084,  273,  274, 2089
1135, 1032, 2085, 2090, 1031
1136, 2085, 2086, 2091, 2090
1137, 2086, 2087, 2092, 2091
1138, 2087, 2088, 2093, 2092
1139, 2088, 2089, 2094, 2093
1140, 2089,  274,  275, 2094
1141, 1031, 2090, 2095, 1030
1142, 2090, 2091, 2096, 2095
1143, 2091, 2092, 2097, 2096
1144, 2092, 2093, 2098, 2097
1145, 2093, 2094, 2099, 2098
1146, 2094,  275,  276, 2099
1147, 1030, 2095, 2100, 1029
1148, 2095, 2096, 2101, 2100
1149, 2096, 2097, 2102, 2101
1150, 2097, 2098, 2103, 2102
1151, 2098, 2099, 2104, 2103
1152, 2099,  276,  277, 2104
1153, 1029, 2100, 2105, 1028
1154, 2100, 2101, 2106, 2105
1155, 2101, 2102, 2107, 2106
1156, 2102, 2103, 2108, 2107
1157, 2103, 2104, 2109, 2108
1158, 2104,  277,  278, 2109
1159, 1028, 2105, 2110, 1027
1160, 2105, 2106, 2111, 2110
1161, 2106, 2107, 2112, 2111
1162, 2107, 2108, 2113, 2112
1163, 2108, 2109, 2114, 2113
1164, 2109,  278,  279, 2114
1165, 1027, 2110, 2115, 1026
1166, 2110, 2111, 2116, 2115
1167, 2111, 2112, 2117, 2116
1168, 2112, 2113, 2118, 2117
1169, 2113, 2114, 2119, 2118
1170, 2114,  279,  280, 2119
1171, 1026, 2115, 2120, 1025
1172, 2115, 2116, 2121, 2120
1173, 2116, 2117, 2122, 2121
1174, 2117, 2118, 2123, 2122
1175, 2118, 2119, 2124, 2123
1176, 2119,  280,  281, 2124
1177, 1025, 2120, 2125, 1024
1178, 2120, 2121, 2126, 2125
1179, 2121, 2122, 2127, 2126
1180, 2122, 2123, 2128, 2127
1181, 2123, 2124, 2129, 2128
1182, 2124,  281,  282, 2129
1183, 1024, 2125, 2130, 1023
1184, 2125, 2126, 2131, 2130
1185, 2126, 2127, 2132, 2131
1186, 2127, 2128, 2133, 2132
1187, 2128, 2129, 2134, 2133
1188, 2129,  282,  283, 2134
1189, 1023, 2130, 2135, 1022
1190, 2130, 2131, 2136, 2135
1191, 2131, 2132, 2137, 2136
1192, 2132, 2133, 2138, 2137
1193, 2133, 2134, 2139, 2138
1194, 2134,  283,  284, 2139
1195, 1022, 2135, 2140, 1021
1196, 2135, 2136, 2141, 2140
1197, 2136, 2137, 2142, 2141
1198, 2137, 2138, 2143, 2142
1199, 2138, 2139, 2144, 2143
1200, 2139,  284,  285, 2144
1201, 1021, 2140, 2145, 1020
1202, 2140, 2141, 2146, 2145
1203, 2141, 2142, 2147, 2146
1204, 2142, 2143, 2148, 2147
1205, 2143, 2144, 2149, 2148
1206, 2144,  285,  286, 2149
1207, 1020, 2145, 2150, 1019
1208, 2145, 2146, 2151, 2150
1209, 2146, 2147, 2152, 2151
1210, 2147, 2148, 2153, 2152
1211, 2148, 2149, 2154, 2153
1212, 2149,  286,  287, 2154
1213, 1019, 2150, 2155, 1018
1214, 2150, 2151, 2156, 2155
1215, 2151, 2152, 2157, 2156
1216, 2152, 2153, 2158, 2157
1217, 2153, 2154, 2159, 2158
1218, 2154,  287,  288, 2159
1219, 1018, 2155, 2160, 1017
1220, 2155, 2156, 2161, 2160
1221, 2156, 2157, 2162, 2161
1222, 2157, 2158, 2163, 2162
1223, 2158, 2159, 2164, 2163
1224, 2159,  288,  289, 2164
1225, 1017, 2160, 2165, 1016
1226, 2160, 2161, 2166, 2165
1227, 2161, 2162, 2167, 2166
1228, 2162, 2163, 2168, 2167
1229, 2163, 2164, 2169, 2168
1230, 2164,  289,  290, 2169
1231, 1016, 2165, 2170, 1015
1232, 2165, 2166, 2171, 2170
1233, 2166, 2167, 2172, 2171
1234, 2167, 2168, 2173, 2172
1235, 2168, 2169, 2174, 2173
1236, 2169,  290,  291, 2174
1237, 1015, 2170, 2175, 1014
1238, 2170, 2171, 2176, 2175
1239, 2171, 2172, 2177, 2176
1240, 2172, 2173, 2178, 2177
1241, 2173, 2174, 2179, 2178
1242, 2174,  291,  292, 2179
1243, 1014, 2175, 2180, 1013
1244, 2175, 2176, 2181, 2180
1245, 2176, 2177, 2182, 2181
1246, 2177, 2178, 2183, 2182
1247, 2178, 2179, 2184, 2183
1248, 2179,  292,  293, 2184
1249, 1013, 2180, 2185, 1012
1250, 2180, 2181, 2186, 2185
1251, 2181, 2182, 2187, 2186
1252, 2182, 2183, 2188, 2187
1253, 2183, 2184, 2189, 2188
1254, 2184,  293,  294, 2189
1255, 1012, 2185, 2190, 1011
1256, 2185, 2186, 2191, 2190
1257, 2186, 2187, 2192, 2191
1258, 2187, 2188, 2193, 2192
1259, 2188, 2189, 2194, 2193
1260, 2189,  294,  295, 2194
1261, 1011, 2190, 2195, 1010
1262, 2190, 2191, 2196, 2195
1263, 2191, 2192, 2197, 2196
1264, 2192, 2193, 2198, 2197
1265, 2193, 2194, 2199, 2198
1266, 2194,  295,  296, 2199
1267, 1010, 2195, 2200, 1009
1268, 2195, 2196, 2201, 2200
1269, 2196, 2197, 2202, 2201
1270, 2197, 2198, 2203, 2202
1271, 2198, 2199, 2204, 2203
1272, 2199,  296,  297, 2204
1273, 1009, 2200, 2205, 1008
1274, 2200, 2201, 2206, 2205
1275, 2201, 2202, 2207, 2206
1276, 2202, 2203, 2208, 2207
1277, 2203, 2204, 2209, 2208
1278, 2204,  297,  298, 2209
1279, 1008, 2205, 2210, 1007
1280, 2205, 2206, 2211, 2210
1281, 2206, 2207, 2212, 2211
1282, 2207, 2208, 2213, 2212
1283, 2208, 2209, 2214, 2213
1284, 2209,  298,  299, 2214
1285, 1007, 2210, 2215, 1006
1286, 2210, 2211, 2216, 2215
1287, 2211, 2212, 2217, 2216
1288, 2212, 2213, 2218, 2217
1289, 2213, 2214, 2219, 2218
1290, 2214,  299,  300, 2219
1291, 1006, 2215, 2220, 1005
1292, 2215, 2216, 2221, 2220
1293, 2216, 2217, 2222, 2221
1294, 2217, 2218, 2223, 2222
1295, 2218, 2219, 2224, 2223
1296, 2219,  300,  301, 2224
1297, 1005, 2220, 2225, 1004
1298, 2220, 2221, 2226, 2225
1299, 2221, 2222, 2227, 2226
1300, 2222, 2223, 2228, 2227
1301, 2223, 2224, 2229, 2228
1302, 2224,  301,  302, 2229
1303, 1004, 2225, 2230, 1003
1304, 2225, 2226, 2231, 2230
1305, 2226, 2227, 2232, 2231
1306, 2227, 2228, 2233, 2232
1307, 2228, 2229, 2234, 2233
1308, 2229,  302,  303, 2234
1309, 1003, 2230, 2235, 1002
1310, 2230, 2231, 2236, 2235
1311, 2231, 2232, 2237, 2236
1312, 2232, 2233, 2238, 2237
1313, 2233, 2234, 2239, 2238
1314, 2234,  303,  304, 2239
1315, 1002, 2235, 2240, 1001
1316, 2235, 2236, 2241, 2240
1317, 2236, 2237, 2242, 2241
1318, 2237, 2238, 2243, 2242
1319, 2238, 2239, 2244, 2243
1320, 2239,  304,  305, 2244
1321, 1001, 2240, 2245, 1000
1322, 2240, 2241, 2246, 2245
1323, 2241, 2242, 2247, 2246
1324, 2242, 2243, 2248, 2247
1325, 2243, 2244, 2249, 2248
1326, 2244,  305,  306, 2249
1327, 1000, 2245, 2250,  999
1328, 2245, 2246, 2251, 2250
1329, 2246, 2247, 2252, 2251
1330, 2247, 2248, 2253, 2252
1331, 2248, 2249, 2254, 2253
1332, 2249,  306,  307, 2254
1333,  999, 2250, 2255,  998
1334, 2250, 2251, 2256, 2255
1335, 2251, 2252, 2257, 2256
1336, 2252, 2253, 2258, 2257
1337, 2253, 2254, 2259, 2258
1338, 2254,  307,  308, 2259
1339,  998, 2255, 2260,  997
1340, 2255, 2256, 2261, 2260
1341, 2256, 2257, 2262, 2261
1342, 2257, 2258, 2263, 2262
1343, 2258, 2259, 2264, 2263
1344, 2259,  308,  309, 2264
1345,  997, 2260, 2265,  996
1346, 2260, 2261, 2266, 2265
1347, 2261, 2262, 2267, 2266
1348, 2262, 2263, 2268, 2267
1349, 2263, 2264, 2269, 2268
1350, 2264,  309,  310, 2269
1351,  996, 2265, 2270,  995
1352, 2265, 2266, 2271, 2270
1353, 2266, 2267, 2272, 2271
1354, 2267, 2268, 2273, 2272
1355, 2268, 2269, 2274, 2273
1356, 2269,  310,  311, 2274
1357,  995, 2270, 2275,  994
1358, 2270, 2271, 2276, 2275
1359, 2271, 2272, 2277, 2276
1360, 2272, 2273, 2278, 2277
1361, 2273, 2274, 2279, 2278
1362, 2274,  311,  312, 2279
1363,  994, 2275, 2280,  993
1364, 2275, 2276, 2281, 2280
1365, 2276, 2277, 2282, 2281
1366, 2277, 2278, 2283, 2282
1367, 2278, 2279, 2284, 2283
1368, 2279,  312,  313, 2284
1369,  993, 2280, 2285,  992
1370, 2280, 2281, 2286, 2285
1371, 2281, 2282, 2287, 2286
1372, 2282, 2283, 2288, 2287
1373, 2283, 2284, 2289, 2288
1374, 2284,  313,  314, 2289
1375,  992, 2285, 2290,  991
1376, 2285, 2286, 2291, 2290
1377, 2286, 2287, 2292, 2291
1378, 2287, 2288, 2293, 2292
1379, 2288, 2289, 2294, 2293
1380, 2289,  314,  315, 2294
1381,  991, 2290, 2295,  990
1382, 2290, 2291, 2296, 2295
1383, 2291, 2292, 2297, 2296
1384, 2292, 2293, 2298, 2297
1385, 2293, 2294, 2299, 2298
1386, 2294,  315,  316, 2299
1387,  990, 2295, 2300,  989
1388, 2295, 2296, 2301, 2300
1389, 2296, 2297, 2302, 2301
1390, 2297, 2298, 2303, 2302
1391, 2298, 2299, 2304, 2303
1392, 2299,  316,  317, 2304
1393,  989, 2300, 2305,  988
1394, 2300, 2301, 2306, 2305
1395, 2301, 2302, 2307, 2306
1396, 2302, 2303, 2308, 2307
1397, 2303, 2304, 2309, 2308
1398, 2304,  317,  318, 2309
1399,  988, 2305, 2310,  987
1400, 2305, 2306, 2311, 2310
1401, 2306, 2307, 2312, 2311
1402, 2307, 2308, 2313, 2312
1403, 2308, 2309, 2314, 2313
1404, 2309,  318,  319, 2314
1405,  987, 2310, 2315,  986
1406, 2310, 2311, 2316, 2315
1407, 2311, 2312, 2317, 2316
1408, 2312, 2313, 2318, 2317
1409, 2313, 2314, 2319, 2318
1410, 2314,  319,  320, 2319
1411,  986, 2315, 2320,  985
1412, 2315, 2316, 2321, 2320
1413, 2316, 2317, 2322, 2321
1414, 2317, 2318, 2323, 2322
1415, 2318, 2319, 2324, 2323
1416, 2319,  320,  321, 2324
1417,  985, 2320, 2325,  984
1418, 2320, 2321, 2326, 2325
1419, 2321, 2322, 2327, 2326
1420, 2322, 2323, 2328, 2327
1421, 2323, 2324, 2329, 2328
1422, 2324,  321,  322, 2329
1423,  984, 2325, 2330,  983
1424, 2325, 2326, 2331, 2330
1425, 2326, 2327, 2332, 2331
1426, 2327, 2328, 2333, 2332
1427, 2328, 2329, 2334, 2333
1428, 2329,  322,  323, 2334
1429,  983, 2330, 2335,  982
1430, 2330, 2331, 2336, 2335
1431, 2331, 2332, 2337, 2336
1432, 2332, 2333, 2338, 2337
1433, 2333, 2334, 2339, 2338
1434, 2334,  323,  324, 2339
1435,  982, 2335, 2340,  981
1436, 2335, 2336, 2341, 2340
1437, 2336, 2337, 2342, 2341
1438, 2337, 2338, 2343, 2342
1439, 2338, 2339, 2344, 2343
1440, 2339,  324,  325, 2344
1441,  981, 2340, 2345,  980
1442, 2340, 2341, 2346, 2345
1443, 2341, 2342, 2347, 2346
1444, 2342, 2343, 2348, 2347
1445, 2343, 2344, 2349, 2348
1446, 2344,  325,  326, 2349
1447,  980, 2345, 2350,  979
1448, 2345, 2346, 2351, 2350
1449, 2346, 2347, 2352, 2351
1450, 2347, 2348, 2353, 2352
1451, 2348, 2349, 2354, 2353
1452, 2349,  326,  327, 2354
1453,  979, 2350, 2355,  978
1454, 2350, 2351, 2356, 2355
1455, 2351, 2352, 2357, 2356
1456, 2352, 2353, 2358, 2357
1457, 2353, 2354, 2359, 2358
1458, 2354,  327,  328, 2359
1459,  978, 2355, 2360,  977
1460, 2355, 2356, 2361, 2360
1461, 2356, 2357, 2362, 2361
1462, 2357, 2358, 2363, 2362
1463, 2358, 2359, 2364, 2363
1464, 2359,  328,  329, 2364
1465,  977, 2360, 2365,  976
1466, 2360, 2361, 2366, 2365
1467, 2361, 2362, 2367, 2366
1468, 2362, 2363, 2368, 2367
1469, 2363, 2364, 2369, 2368
1470, 2364,  329,  330, 2369
1471,  976, 2365, 2370,  975
1472, 2365, 2366, 2371, 2370
1473, 2366, 2367, 2372, 2371
1474, 2367, 2368, 2373, 2372
1475, 2368, 2369, 2374, 2373
1476, 2369,  330,  331, 2374
1477,  975, 2370, 2375,  974
1478, 2370, 2371, 2376, 2375
1479, 2371, 2372, 2377, 2376
1480, 2372, 2373, 2378, 2377
1481, 2373, 2374, 2379, 2378
1482, 2374,  331,  332, 2379
1483,  974, 2375, 2380,  973
1484, 2375, 2376, 2381, 2380
1485, 2376, 2377, 2382, 2381
1486, 2377, 2378, 2383, 2382
1487, 2378, 2379, 2384, 2383
1488, 2379,  332,  333, 2384
1489,  973, 2380, 2385,  972
1490, 2380, 2381, 2386, 2385
1491, 2381, 2382, 2387, 2386
1492, 2382, 2383, 2388, 2387
1493, 2383, 2384, 2389, 2388
1494, 2384,  333,  334, 2389
1495,  972, 2385, 2390,  971
1496, 2385, 2386, 2391, 2390
1497, 2386, 2387, 2392, 2391
1498, 2387, 2388, 2393, 2392
1499, 2388, 2389, 2394, 2393
1500, 2389,  334,  335, 2394
1501,  971, 2390, 2395,  970
1502, 2390, 2391, 2396, 2395
1503, 2391, 2392, 2397, 2396
1504, 2392, 2393, 2398, 2397
1505, 2393, 2394, 2399, 2398
1506, 2394,  335,  336, 2399
1507,  970, 2395, 2400,  969
1508, 2395, 2396, 2401, 2400
1509, 2396, 2397, 2402, 2401
1510, 2397, 2398, 2403, 2402
1511, 2398, 2399, 2404, 2403
1512, 2399,  336,  337, 2404
1513,  969, 2400, 2405,  968
1514, 2400, 2401, 2406, 2405
1515, 2401, 2402, 2407, 2406
1516, 2402, 2403, 2408, 2407
1517, 2403, 2404, 2409, 2408
1518, 2404,  337,  338, 2409
1519,  968, 2405, 2410,  967
1520, 2405, 2406, 2411, 2410
1521, 2406, 2407, 2412, 2411
1522, 2407, 2408, 2413, 2412
1523, 2408, 2409, 2414, 2413
1524, 2409,  338,  339, 2414
1525,  967, 2410, 2415,  966
1526, 2410, 2411, 2416, 2415
1527, 2411, 2412, 2417, 2416
1528, 2412, 2413, 2418, 2417
1529, 2413, 2414, 2419, 2418
1530, 2414,  339,  340, 2419
1531,  966, 2415, 2420,  965
1532, 2415, 2416, 2421, 2420
1533, 2416, 2417, 2422, 2421
1534, 2417, 2418, 2423, 2422
1535, 2418, 2419, 2424, 2423
1536, 2419,  340,  341, 2424
1537,  965, 2420, 2425,  964
1538, 2420, 2421, 2426, 2425
1539, 2421, 2422, 2427, 2426
1540, 2422, 2423, 2428, 2427
1541, 2423, 2424, 2429, 2428
1542, 2424,  341,  342, 2429
1543,  964, 2425, 2430,  963
1544, 2425, 2426, 2431, 2430
1545, 2426, 2427, 2432, 2431
1546, 2427, 2428, 2433, 2432
1547, 2428, 2429, 2434, 2433
1548, 2429,  342,  343, 2434
1549,  963, 2430, 2435,  962
1550, 2430, 2431, 2436, 2435
1551, 2431, 2432, 2437, 2436
1552, 2432, 2433, 2438, 2437
1553, 2433, 2434, 2439, 2438
1554, 2434,  343,  344, 2439
1555,  962, 2435, 2440,  961
1556, 2435, 2436, 2441, 2440
1557, 2436, 2437, 2442, 2441
1558, 2437, 2438, 2443, 2442
1559, 2438, 2439, 2444, 2443
1560, 2439,  344,  345, 2444
1561,  961, 2440, 2445,  960
1562, 2440, 2441, 2446, 2445
1563, 2441, 2442, 2447, 2446
1564, 2442, 2443, 2448, 2447
1565, 2443, 2444, 2449, 2448
1566, 2444,  345,  346, 2449
1567,  960, 2445, 2450,  959
1568, 2445, 2446, 2451, 2450
1569, 2446, 2447, 2452, 2451
1570, 2447, 2448, 2453, 2452
1571, 2448, 2449, 2454, 2453
1572, 2449,  346,  347, 2454
1573,  959, 2450, 2455,  958
1574, 2450, 2451, 2456, 2455
1575, 2451, 2452, 2457, 2456
1576, 2452, 2453, 2458, 2457
1577, 2453, 2454, 2459, 2458
1578, 2454,  347,  348, 2459
1579,  958, 2455, 2460,  957
1580, 2455, 2456, 2461, 2460
1581, 2456, 2457, 2462, 2461
1582, 2457, 2458, 2463, 2462
1583, 2458, 2459, 2464, 2463
1584, 2459,  348,  349, 2464
1585,  957, 2460, 2465,  956
1586, 2460, 2461, 2466, 2465
1587, 2461, 2462, 2467, 2466
1588, 2462, 2463, 2468, 2467
1589, 2463, 2464, 2469, 2468
1590, 2464,  349,  350, 2469
1591,  956, 2465, 2470,  955
1592, 2465, 2466, 2471, 2470
1593, 2466, 2467, 2472, 2471
1594, 2467, 2468, 2473, 2472
1595, 2468, 2469, 2474, 2473
1596, 2469,  350,  351, 2474
1597,  955, 2470, 2475,  954
1598, 2470, 2471, 2476, 2475
1599, 2471, 2472, 2477, 2476
1600, 2472, 2473, 2478, 2477
1601, 2473, 2474, 2479, 2478
1602, 2474,  351,  352, 2479
1603,  954, 2475, 2480,  953
1604, 2475, 2476, 2481, 2480
1605, 2476, 2477, 2482, 2481
1606, 2477, 2478, 2483, 2482
1607, 2478, 2479, 2484, 2483
1608, 2479,  352,  353, 2484
1609,  953, 2480, 2485,  952
1610, 2480, 2481, 2486, 2485
1611, 2481, 2482, 2487, 2486
1612, 2482, 2483, 2488, 2487
1613, 2483, 2484, 2489, 2488
1614, 2484,  353,  354, 2489
1615,  952, 2485, 2490,  951
1616, 2485, 2486, 2491, 2490
1617, 2486, 2487, 2492, 2491
1618, 2487, 2488, 2493, 2492
1619, 2488, 2489, 2494, 2493
1620, 2489,  354,  355, 2494
1621,  951, 2490, 2495,  950
1622, 2490, 2491, 2496, 2495
1623, 2491, 2492, 2497, 2496
1624, 2492, 2493, 2498, 2497
1625, 2493, 2494, 2499, 2498
1626, 2494,  355,  356, 2499
1627,  950, 2495, 2500,  949
1628, 2495, 2496, 2501, 2500
1629, 2496, 2497, 2502, 2501
1630, 2497, 2498, 2503, 2502
1631, 2498, 2499, 2504, 2503
1632, 2499,  356,  357, 2504
1633,  949, 2500, 2505,  948
1634, 2500, 2501, 2506, 2505
1635, 2501, 2502, 2507, 2506
1636, 2502, 2503, 2508, 2507
1637, 2503, 2504, 2509, 2508
1638, 2504,  357,  358, 2509
1639,  948, 2505, 2510,  947
1640, 2505, 2506, 2511, 2510
1641, 2506, 2507, 2512, 2511
1642, 2507, 2508, 2513, 2512
1643, 2508, 2509, 2514, 2513
1644, 2509,  358,  359, 2514
1645,  947, 2510, 2515,  946
1646, 2510, 2511, 2516, 2515
1647, 2511, 2512, 2517, 2516
1648, 2512, 2513, 2518, 2517
1649, 2513, 2514, 2519, 2518
1650, 2514,  359,  360, 2519
1651,  946, 2515, 2520,  945
1652, 2515, 2516, 2521, 2520
1653, 2516, 2517, 2522, 2521
1654, 2517, 2518, 2523, 2522
1655, 2518, 2519, 2524, 2523
1656, 2519,  360,  361, 2524
1657,  945, 2520, 2525,  944
1658, 2520, 2521, 2526, 2525
1659, 2521, 2522, 2527, 2526
1660, 2522, 2523, 2528, 2527
1661, 2523, 2524, 2529, 2528
1662, 2524,  361,  362, 2529
1663,  944, 2525, 2530,  943
1664, 2525, 2526, 2531, 2530
1665, 2526, 2527, 2532, 2531
1666, 2527, 2528, 2533, 2532
1667, 2528, 2529, 2534, 2533
1668, 2529,  362,  363, 2534
1669,  943, 2530, 2535,  942
1670, 2530, 2531, 2536, 2535
1671, 2531, 2532, 2537, 2536
1672, 2532, 2533, 2538, 2537
1673, 2533, 2534, 2539, 2538
1674, 2534,  363,  364, 2539
1675,  942, 2535, 2540,  941
1676, 2535, 2536, 2541, 2540
1677, 2536, 2537, 2542, 2541
1678, 2537, 2538, 2543, 2542
1679, 2538, 2539, 2544, 2543
1680, 2539,  364,  365, 2544
1681,  941, 2540, 2545,  940
1682, 2540, 2541, 2546, 2545
1683, 2541, 2542, 2547, 2546
1684, 2542, 2543, 2548, 2547
1685, 2543, 2544, 2549, 2548
1686, 2544,  365,  366, 2549
1687,  940, 2545, 2550,  939
1688, 2545, 2546, 2551, 2550
1689, 2546, 2547, 2552, 2551
1690, 2547, 2548, 2553, 2552
1691, 2548, 2549, 2554, 2553
1692, 2549,  366,  367, 2554
1693,  939, 2550, 2555,  938
1694, 2550, 2551, 2556, 2555
1695, 2551, 2552, 2557, 2556
1696, 2552, 2553, 2558, 2557
1697, 2553, 2554, 2559, 2558
1698, 2554,  367,  368, 2559
1699,  938, 2555, 2560,  937
1700, 2555, 2556, 2561, 2560
1701, 2556, 2557, 2562, 2561
1702, 2557, 2558, 2563, 2562
1703, 2558, 2559, 2564, 2563
1704, 2559,  368,  369, 2564
1705,  937, 2560, 2565,  936
1706, 2560, 2561, 2566, 2565
1707, 2561, 2562, 2567, 2566
1708, 2562, 2563, 2568, 2567
1709, 2563, 2564, 2569, 2568
1710, 2564,  369,  370, 2569
1711,  936, 2565, 2570,  935
1712, 2565, 2566, 2571, 2570
1713, 2566, 2567, 2572, 2571
1714, 2567, 2568, 2573, 2572
1715, 2568, 2569, 2574, 2573
1716, 2569,  370,  371, 2574
1717,  935, 2570, 2575,  934
1718, 2570, 2571, 2576, 2575
1719, 2571, 2572, 2577, 2576
1720, 2572, 2573, 2578, 2577
1721, 2573, 2574, 2579, 2578
1722, 2574,  371,  372, 2579
1723,  934, 2575, 2580,  933
1724, 2575, 2576, 2581, 2580
1725, 2576, 2577, 2582, 2581
1726, 2577, 2578, 2583, 2582
1727, 2578, 2579, 2584, 2583
1728, 2579,  372,  373, 2584
1729,  933, 2580, 2585,  932
1730, 2580, 2581, 2586, 2585
1731, 2581, 2582, 2587, 2586
1732, 2582, 2583, 2588, 2587
1733, 2583, 2584, 2589, 2588
1734, 2584,  373,  374, 2589
1735,  932, 2585, 2590,  931
1736, 2585, 2586, 2591, 2590
1737, 2586, 2587, 2592, 2591
1738, 2587, 2588, 2593, 2592
1739, 2588, 2589, 2594, 2593
1740, 2589,  374,  375, 2594
1741,  931, 2590, 2595,  930
1742, 2590, 2591, 2596, 2595
1743, 2591, 2592, 2597, 2596
1744, 2592, 2593, 2598, 2597
1745, 2593, 2594, 2599, 2598
1746, 2594,  375,  376, 2599
1747,  930, 2595, 2600,  929
1748, 2595, 2596, 2601, 2600
1749, 2596, 2597, 2602, 2601
1750, 2597, 2598, 2603, 2602
1751, 2598, 2599, 2604, 2603
1752, 2599,  376,  377, 2604
1753,  929, 2600, 2605,  928
1754, 2600, 2601, 2606, 2605
1755, 2601, 2602, 2607, 2606
1756, 2602, 2603, 2608, 2607
1757, 2603, 2604, 2609, 2608
1758, 2604,  377,  378, 2609
1759,  928, 2605, 2610,  927
1760, 2605, 2606, 2611, 2610
1761, 2606, 2607, 2612, 2611
1762, 2607, 2608, 2613, 2612
1763, 2608, 2609, 2614, 2613
1764, 2609,  378,  379, 2614
1765,  927, 2610, 2615,  926
1766, 2610, 2611, 2616, 2615
1767, 2611, 2612, 2617, 2616
1768, 2612, 2613, 2618, 2617
1769, 2613, 2614, 2619, 2618
1770, 2614,  379,  380, 2619
1771,  926, 2615, 2620,  925
1772, 2615, 2616, 2621, 2620
1773, 2616, 2617, 2622, 2621
1774, 2617, 2618, 2623, 2622
1775, 2618, 2619, 2624, 2623
1776, 2619,  380,  381, 2624
1777,  925, 2620, 2625,  924
1778, 2620, 2621, 2626, 2625
1779, 2621, 2622, 2627, 2626
1780, 2622, 2623, 2628, 2627
1781, 2623, 2624, 2629, 2628
1782, 2624,  381,  382, 2629
1783,  924, 2625, 2630,  923
1784, 2625, 2626, 2631, 2630
1785, 2626, 2627, 2632, 2631
1786, 2627, 2628, 2633, 2632
1787, 2628, 2629, 2634, 2633
1788, 2629,  382,  383, 2634
1789,  923, 2630, 2635,  922
1790, 2630, 2631, 2636, 2635
1791, 2631, 2632, 2637, 2636
1792, 2632, 2633, 2638, 2637
1793, 2633, 2634, 2639, 2638
1794, 2634,  383,  384, 2639
1795,  922, 2635, 2640,  921
1796, 2635, 2636, 2641, 2640
1797, 2636, 2637, 2642, 2641
1798, 2637, 2638, 2643, 2642
1799, 2638, 2639, 2644, 2643
1800, 2639,  384,  385, 2644
1801,  921, 2640, 2645,  920
1802, 2640, 2641, 2646, 2645
1803, 2641, 2642, 2647, 2646
1804, 2642, 2643, 2648, 2647
1805, 2643, 2644, 2649, 2648
1806, 2644,  385,  386, 2649
1807,  920, 2645, 2650,  919
1808, 2645, 2646, 2651, 2650
1809, 2646, 2647, 2652, 2651
1810, 2647, 2648, 2653, 2652
1811, 2648, 2649, 2654, 2653
1812, 2649,  386,  387, 2654
1813,  919, 2650, 2655,  918
1814, 2650, 2651, 2656, 2655
1815, 2651, 2652, 2657, 2656
1816, 2652, 2653, 2658, 2657
1817, 2653, 2654, 2659, 2658
1818, 2654,  387,  388, 2659
1819,  918, 2655, 2660,  917
1820, 2655, 2656, 2661, 2660
1821, 2656, 2657, 2662, 2661
1822, 2657, 2658, 2663, 2662
1823, 2658, 2659, 2664, 2663
1824, 2659,  388,  389, 2664
1825,  917, 2660, 2665,  916
1826, 2660, 2661, 2666, 2665
1827, 2661, 2662, 2667, 2666
1828, 2662, 2663, 2668, 2667
1829, 2663, 2664, 2669, 2668
1830, 2664,  389,  390, 2669
1831,  916, 2665, 2670,  915
1832, 2665, 2666, 2671, 2670
1833, 2666, 2667, 2672, 2671
1834, 2667, 2668, 2673, 2672
1835, 2668, 2669, 2674, 2673
1836, 2669,  390,  391, 2674
1837,  915, 2670, 2675,  914
1838, 2670, 2671, 2676, 2675
1839, 2671, 2672, 2677, 2676
1840, 2672, 2673, 2678, 2677
1841, 2673, 2674, 2679, 2678
1842, 2674,  391,  392, 2679
1843,  914, 2675, 2680,  913
1844, 2675, 2676, 2681, 2680
1845, 2676, 2677, 2682, 2681
1846, 2677, 2678, 2683, 2682
1847, 2678, 2679, 2684, 2683
1848, 2679,  392,  393, 2684
1849,  913, 2680, 2685,  912
1850, 2680, 2681, 2686, 2685
1851, 2681, 2682, 2687, 2686
1852, 2682, 2683, 2688, 2687
1853, 2683, 2684, 2689, 2688
1854, 2684,  393,  394, 2689
1855,  912, 2685, 2690,  911
1856, 2685, 2686, 2691, 2690
1857, 2686, 2687, 2692, 2691
1858, 2687, 2688, 2693, 2692
1859, 2688, 2689, 2694, 2693
1860, 2689,  394,  395, 2694
1861,  911, 2690, 2695,  910
1862, 2690, 2691, 2696, 2695
1863, 2691, 2692, 2697, 2696
1864, 2692, 2693, 2698, 2697
1865, 2693, 2694, 2699, 2698
1866, 2694,  395,  396, 2699
1867,  910, 2695, 2700,  909
1868, 2695, 2696, 2701, 2700
1869, 2696, 2697, 2702, 2701
1870, 2697, 2698, 2703, 2702
1871, 2698, 2699, 2704, 2703
1872, 2699,  396,  397, 2704
1873,  909, 2700, 2705,  908
1874, 2700, 2701, 2706, 2705
1875, 2701, 2702, 2707, 2706
1876, 2702, 2703, 2708, 2707
1877, 2703, 2704, 2709, 2708
1878, 2704,  397,  398, 2709
1879,  908, 2705, 2710,  907
1880, 2705, 2706, 2711, 2710
1881, 2706, 2707, 2712, 2711
1882, 2707, 2708, 2713, 2712
1883, 2708, 2709, 2714, 2713
1884, 2709,  398,  399, 2714
1885,  907, 2710, 2715,  906
1886, 2710, 2711, 2716, 2715
1887, 2711, 2712, 2717, 2716
1888, 2712, 2713, 2718, 2717
1889, 2713, 2714, 2719, 2718
1890, 2714,  399,  400, 2719
1891,  906, 2715, 2720,  905
1892, 2715, 2716, 2721, 2720
1893, 2716, 2717, 2722, 2721
1894, 2717, 2718, 2723, 2722
1895, 2718, 2719, 2724, 2723
1896, 2719,  400,  401, 2724
1897,  905, 2720, 2725,  904
1898, 2720, 2721, 2726, 2725
1899, 2721, 2722, 2727, 2726
1900, 2722, 2723, 2728, 2727
1901, 2723, 2724, 2729, 2728
1902, 2724,  401,  402, 2729
1903,  904, 2725, 2730,  903
1904, 2725, 2726, 2731, 2730
1905, 2726, 2727, 2732, 2731
1906, 2727, 2728, 2733, 2732
1907, 2728, 2729, 2734, 2733
1908, 2729,  402,  403, 2734
1909,  903, 2730, 2735,  902
1910, 2730, 2731, 2736, 2735
1911, 2731, 2732, 2737, 2736
1912, 2732, 2733, 2738, 2737
1913, 2733, 2734, 2739, 2738
1914, 2734,  403,  404, 2739
1915,  902, 2735, 2740,  901
1916, 2735, 2736, 2741, 2740
1917, 2736, 2737, 2742, 2741
1918, 2737, 2738, 2743, 2742
1919, 2738, 2739, 2744, 2743
1920, 2739,  404,  405, 2744
1921,  901, 2740, 2745,  900
1922, 2740, 2741, 2746, 2745
1923, 2741, 2742, 2747, 2746
1924, 2742, 2743, 2748, 2747
1925, 2743, 2744, 2749, 2748
1926, 2744,  405,  406, 2749
1927,  900, 2745, 2750,  899
1928, 2745, 2746, 2751, 2750
1929, 2746, 2747, 2752, 2751
1930, 2747, 2748, 2753, 2752
1931, 2748, 2749, 2754, 2753
1932, 2749,  406,  407, 2754
1933,  899, 2750, 2755,  898
1934, 2750, 2751, 2756, 2755
1935, 2751, 2752, 2757, 2756
1936, 2752, 2753, 2758, 2757
1937, 2753, 2754, 2759, 2758
1938, 2754,  407,  408, 2759
1939,  898, 2755, 2760,  897
1940, 2755, 2756, 2761, 2760
1941, 2756, 2757, 2762, 2761
1942, 2757, 2758, 2763, 2762
1943, 2758, 2759, 2764, 2763
1944, 2759,  408,  409, 2764
1945,  897, 2760, 2765,  896
1946, 2760, 2761, 2766, 2765
1947, 2761, 2762, 2767, 2766
1948, 2762, 2763, 2768, 2767
1949, 2763, 2764, 2769, 2768
1950, 2764,  409,  410, 2769
1951,  896, 2765, 2770,  895
1952, 2765, 2766, 2771, 2770
1953, 2766, 2767, 2772, 2771
1954, 2767, 2768, 2773, 2772
1955, 2768, 2769, 2774, 2773
1956, 2769,  410,  411, 2774
1957,  895, 2770, 2775,  894
1958, 2770, 2771, 2776, 2775
1959, 2771, 2772, 2777, 2776
1960, 2772, 2773, 2778, 2777
1961, 2773, 2774, 2779, 2778
1962, 2774,  411,  412, 2779
1963,  894, 2775, 2780,  893
1964, 2775, 2776, 2781, 2780
1965, 2776, 2777, 2782, 2781
1966, 2777, 2778, 2783, 2782
1967, 2778, 2779, 2784, 2783
1968, 2779,  412,  413, 2784
1969,  893, 2780, 2785,  892
1970, 2780, 2781, 2786, 2785
1971, 2781, 2782, 2787, 2786
1972, 2782, 2783, 2788, 2787
1973, 2783, 2784, 2789, 2788
1974, 2784,  413,  414, 2789
1975,  892, 2785, 2790,  891
1976, 2785, 2786, 2791, 2790
1977, 2786, 2787, 2792, 2791
1978, 2787, 2788, 2793, 2792
1979, 2788, 2789, 2794, 2793
1980, 2789,  414,  415, 2794
1981,  891, 2790, 2795,  890
1982, 2790, 2791, 2796, 2795
1983, 2791, 2792, 2797, 2796
1984, 2792, 2793, 2798, 2797
1985, 2793, 2794, 2799, 2798
1986, 2794,  415,  416, 2799
1987,  890, 2795, 2800,  889
1988, 2795, 2796, 2801, 2800
1989, 2796, 2797, 2802, 2801
1990, 2797, 2798, 2803, 2802
1991, 2798, 2799, 2804, 2803
1992, 2799,  416,  417, 2804
1993,  889, 2800, 2805,  888
1994, 2800, 2801, 2806, 2805
1995, 2801, 2802, 2807, 2806
1996, 2802, 2803, 2808, 2807
1997, 2803, 2804, 2809, 2808
1998, 2804,  417,  418, 2809
1999,  888, 2805, 2810,  887
2000, 2805, 2806, 2811, 2810
2001, 2806, 2807, 2812, 2811
2002, 2807, 2808, 2813, 2812
2003, 2808, 2809, 2814, 2813
2004, 2809,  418,  419, 2814
2005,  887, 2810, 2815,  886
2006, 2810, 2811, 2816, 2815
2007, 2811, 2812, 2817, 2816
2008, 2812, 2813, 2818, 2817
2009, 2813, 2814, 2819, 2818
2010, 2814,  419,  420, 2819
2011,  886, 2815, 2820,  885
2012, 2815, 2816, 2821, 2820
2013, 2816, 2817, 2822, 2821
2014, 2817, 2818, 2823, 2822
2015, 2818, 2819, 2824, 2823
2016, 2819,  420,  421, 2824
2017,  885, 2820, 2825,  884
2018, 2820, 2821, 2826, 2825
2019, 2821, 2822, 2827, 2826
2020, 2822, 2823, 2828, 2827
2021, 2823, 2824, 2829, 2828
2022, 2824,  421,  422, 2829
2023,  884, 2825, 2830,  883
2024, 2825, 2826, 2831, 2830
2025, 2826, 2827, 2832, 2831
2026, 2827, 2828, 2833, 2832
2027, 2828, 2829, 2834, 2833
2028, 2829,  422,  423, 2834
2029,  883, 2830, 2835,  882
2030, 2830, 2831, 2836, 2835
2031, 2831, 2832, 2837, 2836
2032, 2832, 2833, 2838, 2837
2033, 2833, 2834, 2839, 2838
2034, 2834,  423,  424, 2839
2035,  882, 2835, 2840,  881
2036, 2835, 2836, 2841, 2840
2037, 2836, 2837, 2842, 2841
2038, 2837, 2838, 2843, 2842
2039, 2838, 2839, 2844, 2843
2040, 2839,  424,  425, 2844
2041,  881, 2840, 2845,  880
2042, 2840, 2841, 2846, 2845
2043, 2841, 2842, 2847, 2846
2044, 2842, 2843, 2848, 2847
2045, 2843, 2844, 2849, 2848
2046, 2844,  425,  426, 2849
2047,  880, 2845, 2850,  879
2048, 2845, 2846, 2851, 2850
2049, 2846, 2847, 2852, 2851
2050, 2847, 2848, 2853, 2852
2051, 2848, 2849, 2854, 2853
2052, 2849,  426,  427, 2854
2053,  879, 2850, 2855,  878
2054, 2850, 2851, 2856, 2855
2055, 2851, 2852, 2857, 2856
2056, 2852, 2853, 2858, 2857
2057, 2853, 2854, 2859, 2858
2058, 2854,  427,  428, 2859
2059,  878, 2855, 2860,  877
2060, 2855, 2856, 2861, 2860
2061, 2856, 2857, 2862, 2861
2062, 2857, 2858, 2863, 2862
2063, 2858, 2859, 2864, 2863
2064, 2859,  428,  429, 2864
2065,  877, 2860, 2865,  876
2066, 2860, 2861, 2866, 2865
2067, 2861, 2862, 2867, 2866
2068, 2862, 2863, 2868, 2867
2069, 2863, 2864, 2869, 2868
2070, 2864,  429,  430, 2869
2071,  876, 2865, 2870,  875
2072, 2865, 2866, 2871, 2870
2073, 2866, 2867, 2872, 2871
2074, 2867, 2868, 2873, 2872
2075, 2868, 2869, 2874, 2873
2076, 2869,  430,  431, 2874
2077,  875, 2870, 2875,  874
2078, 2870, 2871, 2876, 2875
2079, 2871, 2872, 2877, 2876
2080, 2872, 2873, 2878, 2877
2081, 2873, 2874, 2879, 2878
2082, 2874,  431,  432, 2879
2083,  874, 2875, 2880,  873
2084, 2875, 2876, 2881, 2880
2085, 2876, 2877, 2882, 2881
2086, 2877, 2878, 2883, 2882
2087, 2878, 2879, 2884, 2883
2088, 2879,  432,  433, 2884
2089,  873, 2880, 2885,  872
2090, 2880, 2881, 2886, 2885
2091, 2881, 2882, 2887, 2886
2092, 2882, 2883, 2888, 2887
2093, 2883, 2884, 2889, 2888
2094, 2884,  433,  434, 2889
2095,  872, 2885, 2890,  871
2096, 2885, 2886, 2891, 2890
2097, 2886, 2887, 2892, 2891
2098, 2887, 2888, 2893, 2892
2099, 2888, 2889, 2894, 2893
2100, 2889,  434,  435, 2894
2101,  871, 2890, 2895,  870
2102, 2890, 2891, 2896, 2895
2103, 2891, 2892, 2897, 2896
2104, 2892, 2893, 2898, 2897
2105, 2893, 2894, 2899, 2898
2106, 2894,  435,  436, 2899
2107,  870, 2895, 2900,  869
2108, 2895, 2896, 2901, 2900
2109, 2896, 2897, 2902, 2901
2110, 2897, 2898, 2903, 2902
2111, 2898, 2899, 2904, 2903
2112, 2899,  436,  437, 2904
2113,  869, 2900, 2905,  868
2114, 2900, 2901, 2906, 2905
2115, 2901, 2902, 2907, 2906
2116, 2902, 2903, 2908, 2907
2117, 2903, 2904, 2909, 2908
2118, 2904,  437,  438, 2909
2119,  868, 2905, 2910,  867
2120, 2905, 2906, 2911, 2910
2121, 2906, 2907, 2912, 2911
2122, 2907, 2908, 2913, 2912
2123, 2908, 2909, 2914, 2913
2124, 2909,  438,  439, 2914
2125,  867, 2910, 2915,  866
2126, 2910, 2911, 2916, 2915
2127, 2911, 2912, 2917, 2916
2128, 2912, 2913, 2918, 2917
2129, 2913, 2914, 2919, 2918
2130, 2914,  439,  440, 2919
2131,  866, 2915, 2920,  865
2132, 2915, 2916, 2921, 2920
2133, 2916, 2917, 2922, 2921
2134, 2917, 2918, 2923, 2922
2135, 2918, 2919, 2924, 2923
2136, 2919,  440,  441, 2924
2137,  865, 2920, 2925,  864
2138, 2920, 2921, 2926, 2925
2139, 2921, 2922, 2927, 2926
2140, 2922, 2923, 2928, 2927
2141, 2923, 2924, 2929, 2928
2142, 2924,  441,  442, 2929
2143,  864, 2925, 2930,  863
2144, 2925, 2926, 2931, 2930
2145, 2926, 2927, 2932, 2931
2146, 2927, 2928, 2933, 2932
2147, 2928, 2929, 2934, 2933
2148, 2929,  442,  443, 2934
2149,  863, 2930, 2935,  862
2150, 2930, 2931, 2936, 2935
2151, 2931, 2932, 2937, 2936
2152, 2932, 2933, 2938, 2937
2153, 2933, 2934, 2939, 2938
2154, 2934,  443,  444, 2939
2155,  862, 2935, 2940,  861
2156, 2935, 2936, 2941, 2940
2157, 2936, 2937, 2942, 2941
2158, 2937, 2938, 2943, 2942
2159, 2938, 2939, 2944, 2943
2160, 2939,  444,  445, 2944
2161,  861, 2940, 2945,  860
2162, 2940, 2941, 2946, 2945
2163, 2941, 2942, 2947, 2946
2164, 2942, 2943, 2948, 2947
2165, 2943, 2944, 2949, 2948
2166, 2944,  445,  446, 2949
2167,  860, 2945, 2950,  859
2168, 2945, 2946, 2951, 2950
2169, 2946, 2947, 2952, 2951
2170, 2947, 2948, 2953, 2952
2171, 2948, 2949, 2954, 2953
2172, 2949,  446,  447, 2954
2173,  859, 2950, 2955,  858
2174, 2950, 2951, 2956, 2955
2175, 2951, 2952, 2957, 2956
2176, 2952, 2953, 2958, 2957
2177, 2953, 2954, 2959, 2958
2178, 2954,  447,  448, 2959
2179,  858, 2955, 2960,  857
2180, 2955, 2956, 2961, 2960
2181, 2956, 2957, 2962, 2961
2182, 2957, 2958, 2963, 2962
2183, 2958, 2959, 2964, 2963
2184, 2959,  448,  449, 2964
2185,  857, 2960, 2965,  856
2186, 2960, 2961, 2966, 2965
2187, 2961, 2962, 2967, 2966
2188, 2962, 2963, 2968, 2967
2189, 2963, 2964, 2969, 2968
2190, 2964,  449,  450, 2969
2191,  856, 2965, 2970,  855
2192, 2965, 2966, 2971, 2970
2193, 2966, 2967, 2972, 2971
2194, 2967, 2968, 2973, 2972
2195, 2968, 2969, 2974, 2973
2196, 2969,  450,  451, 2974
2197,  855, 2970, 2975,  854
2198, 2970, 2971, 2976, 2975
2199, 2971, 2972, 2977, 2976
2200, 2972, 2973, 2978, 2977
2201, 2973, 2974, 2979, 2978
2202, 2974,  451,  452, 2979
2203,  854, 2975, 2980,  853
2204, 2975, 2976, 2981, 2980
2205, 2976, 2977, 2982, 2981
2206, 2977, 2978, 2983, 2982
2207, 2978, 2979, 2984, 2983
2208, 2979,  452,  453, 2984
2209,  853, 2980, 2985,  852
2210, 2980, 2981, 2986, 2985
2211, 2981, 2982, 2987, 2986
2212, 2982, 2983, 2988, 2987
2213, 2983, 2984, 2989, 2988
2214, 2984,  453,  454, 2989
2215,  852, 2985, 2990,  851
2216, 2985, 2986, 2991, 2990
2217, 2986, 2987, 2992, 2991
2218, 2987, 2988, 2993, 2992
2219, 2988, 2989, 2994, 2993
2220, 2989,  454,  455, 2994
2221,  851, 2990, 2995,  850
2222, 2990, 2991, 2996, 2995
2223, 2991, 2992, 2997, 2996
2224, 2992, 2993, 2998, 2997
2225, 2993, 2994, 2999, 2998
2226, 2994,  455,  456, 2999
2227,  850, 2995, 3000,  849
2228, 2995, 2996, 3001, 3000
2229, 2996, 2997, 3002, 3001
2230, 2997, 2998, 3003, 3002
2231, 2998, 2999, 3004, 3003
2232, 2999,  456,  457, 3004
2233,  849, 3000, 3005,  848
2234, 3000, 3001, 3006, 3005
2235, 3001, 3002, 3007, 3006
2236, 3002, 3003, 3008, 3007
2237, 3003, 3004, 3009, 3008
2238, 3004,  457,  458, 3009
2239,  848, 3005, 3010,  847
2240, 3005, 3006, 3011, 3010
2241, 3006, 3007, 3012, 3011
2242, 3007, 3008, 3013, 3012
2243, 3008, 3009, 3014, 3013
2244, 3009,  458,  459, 3014
2245,  847, 3010, 3015,  846
2246, 3010, 3011, 3016, 3015
2247, 3011, 3012, 3017, 3016
2248, 3012, 3013, 3018, 3017
2249, 3013, 3014, 3019, 3018
2250, 3014,  459,  460, 3019
2251,  846, 3015, 3020,  845
2252, 3015, 3016, 3021, 3020
2253, 3016, 3017, 3022, 3021
2254, 3017, 3018, 3023, 3022
2255, 3018, 3019, 3024, 3023
2256, 3019,  460,  461, 3024
2257,  845, 3020, 3025,  844
2258, 3020, 3021, 3026, 3025
2259, 3021, 3022, 3027, 3026
2260, 3022, 3023, 3028, 3027
2261, 3023, 3024, 3029, 3028
2262, 3024,  461,  462, 3029
2263,  844, 3025, 3030,  843
2264, 3025, 3026, 3031, 3030
2265, 3026, 3027, 3032, 3031
2266, 3027, 3028, 3033, 3032
2267, 3028, 3029, 3034, 3033
2268, 3029,  462,  463, 3034
2269,  843, 3030, 3035,  842
2270, 3030, 3031, 3036, 3035
2271, 3031, 3032, 3037, 3036
2272, 3032, 3033, 3038, 3037
2273, 3033, 3034, 3039, 3038
2274, 3034,  463,  464, 3039
2275,  842, 3035, 3040,  841
2276, 3035, 3036, 3041, 3040
2277, 3036, 3037, 3042, 3041
2278, 3037, 3038, 3043, 3042
2279, 3038, 3039, 3044, 3043
2280, 3039,  464,  465, 3044
2281,  841, 3040, 3045,  840
2282, 3040, 3041, 3046, 3045
2283, 3041, 3042, 3047, 3046
2284, 3042, 3043, 3048, 3047
2285, 3043, 3044, 3049, 3048
2286, 3044,  465,  466, 3049
2287,  840, 3045, 3050,  839
2288, 3045, 3046, 3051, 3050
2289, 3046, 3047, 3052, 3051
2290, 3047, 3048, 3053, 3052
2291, 3048, 3049, 3054, 3053
2292, 3049,  466,  467, 3054
2293,  839, 3050, 3055,  838
2294, 3050, 3051, 3056, 3055
2295, 3051, 3052, 3057, 3056
2296, 3052, 3053, 3058, 3057
2297, 3053, 3054, 3059, 3058
2298, 3054,  467,  468, 3059
2299,  838, 3055, 3060,  837
2300, 3055, 3056, 3061, 3060
2301, 3056, 3057, 3062, 3061
2302, 3057, 3058, 3063, 3062
2303, 3058, 3059, 3064, 3063
2304, 3059,  468,  469, 3064
2305,  837, 3060, 3065,  836
2306, 3060, 3061, 3066, 3065
2307, 3061, 3062, 3067, 3066
2308, 3062, 3063, 3068, 3067
2309, 3063, 3064, 3069, 3068
2310, 3064,  469,  470, 3069
2311,  836, 3065, 3070,  835
2312, 3065, 3066, 3071, 3070
2313, 3066, 3067, 3072, 3071
2314, 3067, 3068, 3073, 3072
2315, 3068, 3069, 3074, 3073
2316, 3069,  470,  471, 3074
2317,  835, 3070, 3075,  834
2318, 3070, 3071, 3076, 3075
2319, 3071, 3072, 3077, 3076
2320, 3072, 3073, 3078, 3077
2321, 3073, 3074, 3079, 3078
2322, 3074,  471,  472, 3079
2323,  834, 3075, 3080,  833
2324, 3075, 3076, 3081, 3080
2325, 3076, 3077, 3082, 3081
2326, 3077, 3078, 3083, 3082
2327, 3078, 3079, 3084, 3083
2328, 3079,  472,  473, 3084
2329,  833, 3080, 3085,  832
2330, 3080, 3081, 3086, 3085
2331, 3081, 3082, 3087, 3086
2332, 3082, 3083, 3088, 3087
2333, 3083, 3084, 3089, 3088
2334, 3084,  473,  474, 3089
2335,  832, 3085, 3090,  831
2336, 3085, 3086, 3091, 3090
2337, 3086, 3087, 3092, 3091
2338, 3087, 3088, 3093, 3092
2339, 3088, 3089, 3094, 3093
2340, 3089,  474,  475, 3094
2341,  831, 3090, 3095,  830
2342, 3090, 3091, 3096, 3095
2343, 3091, 3092, 3097, 3096
2344, 3092, 3093, 3098, 3097
2345, 3093, 3094, 3099, 3098
2346, 3094,  475,  476, 3099
2347,  830, 3095, 3100,  829
2348, 3095, 3096, 3101, 3100
2349, 3096, 3097, 3102, 3101
2350, 3097, 3098, 3103, 3102
2351, 3098, 3099, 3104, 3103
2352, 3099,  476,  477, 3104
2353,  829, 3100, 3105,  828
2354, 3100, 3101, 3106, 3105
2355, 3101, 3102, 3107, 3106
2356, 3102, 3103, 3108, 3107
2357, 3103, 3104, 3109, 3108
2358, 3104,  477,  478, 3109
2359,  828, 3105, 3110,  827
2360, 3105, 3106, 3111, 3110
2361, 3106, 3107, 3112, 3111
2362, 3107, 3108, 3113, 3112
2363, 3108, 3109, 3114, 3113
2364, 3109,  478,  479, 3114
2365,  827, 3110, 3115,  826
2366, 3110, 3111, 3116, 3115
2367, 3111, 3112, 3117, 3116
2368, 3112, 3113, 3118, 3117
2369, 3113, 3114, 3119, 3118
2370, 3114,  479,  480, 3119
2371,  826, 3115, 3120,  825
2372, 3115, 3116, 3121, 3120
2373, 3116, 3117, 3122, 3121
2374, 3117, 3118, 3123, 3122
2375, 3118, 3119, 3124, 3123
2376, 3119,  480,  481, 3124
2377,  825, 3120, 3125,  824
2378, 3120, 3121, 3126, 3125
2379, 3121, 3122, 3127, 3126
2380, 3122, 3123, 3128, 3127
2381, 3123, 3124, 3129, 3128
2382, 3124,  481,  482, 3129
2383,  824, 3125, 3130,  823
2384, 3125, 3126, 3131, 3130
2385, 3126, 3127, 3132, 3131
2386, 3127, 3128, 3133, 3132
2387, 3128, 3129, 3134, 3133
2388, 3129,  482,  483, 3134
2389,  823, 3130, 3135,  822
2390, 3130, 3131, 3136, 3135
2391, 3131, 3132, 3137, 3136
2392, 3132, 3133, 3138, 3137
2393, 3133, 3134, 3139, 3138
2394, 3134,  483,  484, 3139
2395,  822, 3135, 3140,  821
2396, 3135, 3136, 3141, 3140
2397, 3136, 3137, 3142, 3141
2398, 3137, 3138, 3143, 3142
2399, 3138, 3139, 3144, 3143
2400, 3139,  484,  485, 3144
2401,  821, 3140, 3145,  820
2402, 3140, 3141, 3146, 3145
2403, 3141, 3142, 3147, 3146
2404, 3142, 3143, 3148, 3147
2405, 3143, 3144, 3149, 3148
2406, 3144,  485,  486, 3149
2407,  820, 3145, 3150,  819
2408, 3145, 3146, 3151, 3150
2409, 3146, 3147, 3152, 3151
2410, 3147, 3148, 3153, 3152
2411, 3148, 3149, 3154, 3153
2412, 3149,  486,  487, 3154
2413,  819, 3150, 3155,  818
2414, 3150, 3151, 3156, 3155
2415, 3151, 3152, 3157, 3156
2416, 3152, 3153, 3158, 3157
2417, 3153, 3154, 3159, 3158
2418, 3154,  487,  488, 3159
2419,  818, 3155, 3160,  817
2420, 3155, 3156, 3161, 3160
2421, 3156, 3157, 3162, 3161
2422, 3157, 3158, 3163, 3162
2423, 3158, 3159, 3164, 3163
2424, 3159,  488,  489, 3164
2425,  817, 3160, 3165,  816
2426, 3160, 3161, 3166, 3165
2427, 3161, 3162, 3167, 3166
2428, 3162, 3163, 3168, 3167
2429, 3163, 3164, 3169, 3168
2430, 3164,  489,  490, 3169
2431,  816, 3165, 3170,  815
2432, 3165, 3166, 3171, 3170
2433, 3166, 3167, 3172, 3171
2434, 3167, 3168, 3173, 3172
2435, 3168, 3169, 3174, 3173
2436, 3169,  490,  491, 3174
2437,  815, 3170, 3175,  814
2438, 3170, 3171, 3176, 3175
2439, 3171, 3172, 3177, 3176
2440, 3172, 3173, 3178, 3177
2441, 3173, 3174, 3179, 3178
2442, 3174,  491,  492, 3179
2443,  814, 3175, 3180,  813
2444, 3175, 3176, 3181, 3180
2445, 3176, 3177, 3182, 3181
2446, 3177, 3178, 3183, 3182
2447, 3178, 3179, 3184, 3183
2448, 3179,  492,  493, 3184
2449,  813, 3180, 3185,  812
2450, 3180, 3181, 3186, 3185
2451, 3181, 3182, 3187, 3186
2452, 3182, 3183, 3188, 3187
2453, 3183, 3184, 3189, 3188
2454, 3184,  493,  494, 3189
2455,  812, 3185, 3190,  811
2456, 3185, 3186, 3191, 3190
2457, 3186, 3187, 3192, 3191
2458, 3187, 3188, 3193, 3192
2459, 3188, 3189, 3194, 3193
2460, 3189,  494,  495, 3194
2461,  811, 3190, 3195,  810
2462, 3190, 3191, 3196, 3195
2463, 3191, 3192, 3197, 3196
2464, 3192, 3193, 3198, 3197
2465, 3193, 3194, 3199, 3198
2466, 3194,  495,  496, 3199
2467,  810, 3195, 3200,  809
2468, 3195, 3196, 3201, 3200
2469, 3196, 3197, 3202, 3201
2470, 3197, 3198, 3203, 3202
2471, 3198, 3199, 3204, 3203
2472, 3199,  496,  497, 3204
2473,  809, 3200, 3205,  808
2474, 3200, 3201, 3206, 3205
2475, 3201, 3202, 3207, 3206
2476, 3202, 3203, 3208, 3207
2477, 3203, 3204, 3209, 3208
2478, 3204,  497,  498, 3209
2479,  808, 3205, 3210,  807
2480, 3205, 3206, 3211, 3210
2481, 3206, 3207, 3212, 3211
2482, 3207, 3208, 3213, 3212
2483, 3208, 3209, 3214, 3213
2484, 3209,  498,  499, 3214
2485,  807, 3210, 3215,  806
2486, 3210, 3211, 3216, 3215
2487, 3211, 3212, 3217, 3216
2488, 3212, 3213, 3218, 3217
2489, 3213, 3214, 3219, 3218
2490, 3214,  499,  500, 3219
2491,  806, 3215, 3220,  805
2492, 3215, 3216, 3221, 3220
2493, 3216, 3217, 3222, 3221
2494, 3217, 3218, 3223, 3222
2495, 3218, 3219, 3224, 3223
2496, 3219,  500,  501, 3224
2497,  805, 3220, 3225,  804
2498, 3220, 3221, 3226, 3225
2499, 3221, 3222, 3227, 3226
2500, 3222, 3223, 3228, 3227
2501, 3223, 3224, 3229, 3228
2502, 3224,  501,  502, 3229
2503,  804, 3225, 3230,  803
2504, 3225, 3226, 3231, 3230
2505, 3226, 3227, 3232, 3231
2506, 3227, 3228, 3233, 3232
2507, 3228, 3229, 3234, 3233
2508, 3229,  502,  503, 3234
2509,  803, 3230, 3235,  802
2510, 3230, 3231, 3236, 3235
2511, 3231, 3232, 3237, 3236
2512, 3232, 3233, 3238, 3237
2513, 3233, 3234, 3239, 3238
2514, 3234,  503,  504, 3239
2515,  802, 3235, 3240,  801
2516, 3235, 3236, 3241, 3240
2517, 3236, 3237, 3242, 3241
2518, 3237, 3238, 3243, 3242
2519, 3238, 3239, 3244, 3243
2520, 3239,  504,  505, 3244
2521,  801, 3240, 3245,  800
2522, 3240, 3241, 3246, 3245
2523, 3241, 3242, 3247, 3246
2524, 3242, 3243, 3248, 3247
2525, 3243, 3244, 3249, 3248
2526, 3244,  505,  506, 3249
2527,  800, 3245, 3250,  799
2528, 3245, 3246, 3251, 3250
2529, 3246, 3247, 3252, 3251
2530, 3247, 3248, 3253, 3252
2531, 3248, 3249, 3254, 3253
2532, 3249,  506,  507, 3254
2533,  799, 3250, 3255,  798
2534, 3250, 3251, 3256, 3255
2535, 3251, 3252, 3257, 3256
2536, 3252, 3253, 3258, 3257
2537, 3253, 3254, 3259, 3258
2538, 3254,  507,  508, 3259
2539,  798, 3255, 3260,  797
2540, 3255, 3256, 3261, 3260
2541, 3256, 3257, 3262, 3261
2542, 3257, 3258, 3263, 3262
2543, 3258, 3259, 3264, 3263
2544, 3259,  508,  509, 3264
2545,  797, 3260, 3265,  796
2546, 3260, 3261, 3266, 3265
2547, 3261, 3262, 3267, 3266
2548, 3262, 3263, 3268, 3267
2549, 3263, 3264, 3269, 3268
2550, 3264,  509,  510, 3269
2551,  796, 3265, 3270,  795
2552, 3265, 3266, 3271, 3270
2553, 3266, 3267, 3272, 3271
2554, 3267, 3268, 3273, 3272
2555, 3268, 3269, 3274, 3273
2556, 3269,  510,  511, 3274
2557,  795, 3270, 3275,  794
2558, 3270, 3271, 3276, 3275
2559, 3271, 3272, 3277, 3276
2560, 3272, 3273, 3278, 3277
2561, 3273, 3274, 3279, 3278
2562, 3274,  511,  512, 3279
2563,  794, 3275, 3280,  793
2564, 3275, 3276, 3281, 3280
2565, 3276, 3277, 3282, 3281
2566, 3277, 3278, 3283, 3282
2567, 3278, 3279, 3284, 3283
2568, 3279,  512,  513, 3284
2569,  793, 3280, 3285,  792
2570, 3280, 3281, 3286, 3285
2571, 3281, 3282, 3287, 3286
2572, 3282, 3283, 3288, 3287
2573, 3283, 3284, 3289, 3288
2574, 3284,  513,  514, 3289
2575,  792, 3285, 3290,  791
2576, 3285, 3286, 3291, 3290
2577, 3286, 3287, 3292, 3291
2578, 3287, 3288, 3293, 3292
2579, 3288, 3289, 3294, 3293
2580, 3289,  514,  515, 3294
2581,  791, 3290, 3295,  790
2582, 3290, 3291, 3296, 3295
2583, 3291, 3292, 3297, 3296
2584, 3292, 3293, 3298, 3297
2585, 3293, 3294, 3299, 3298
2586, 3294,  515,  516, 3299
2587,  790, 3295, 3300,  789
2588, 3295, 3296, 3301, 3300
2589, 3296, 3297, 3302, 3301
2590, 3297, 3298, 3303, 3302
2591, 3298, 3299, 3304, 3303
2592, 3299,  516,  517, 3304
2593,  789, 3300, 3305,  788
2594, 3300, 3301, 3306, 3305
2595, 3301, 3302, 3307, 3306
2596, 3302, 3303, 3308, 3307
2597, 3303, 3304, 3309, 3308
2598, 3304,  517,  518, 3309
2599,  788, 3305, 3310,  787
2600, 3305, 3306, 3311, 3310
2601, 3306, 3307, 3312, 3311
2602, 3307, 3308, 3313, 3312
2603, 3308, 3309, 3314, 3313
2604, 3309,  518,  519, 3314
2605,  787, 3310, 3315,  786
2606, 3310, 3311, 3316, 3315
2607, 3311, 3312, 3317, 3316
2608, 3312, 3313, 3318, 3317
2609, 3313, 3314, 3319, 3318
2610, 3314,  519,  520, 3319
2611,  786, 3315, 3320,  785
2612, 3315, 3316, 3321, 3320
2613, 3316, 3317, 3322, 3321
2614, 3317, 3318, 3323, 3322
2615, 3318, 3319, 3324, 3323
2616, 3319,  520,  521, 3324
2617,  785, 3320, 3325,  784
2618, 3320, 3321, 3326, 3325
2619, 3321, 3322, 3327, 3326
2620, 3322, 3323, 3328, 3327
2621, 3323, 3324, 3329, 3328
2622, 3324,  521,  522, 3329
2623,  784, 3325, 3330,  783
2624, 3325, 3326, 3331, 3330
2625, 3326, 3327, 3332, 3331
2626, 3327, 3328, 3333, 3332
2627, 3328, 3329, 3334, 3333
2628, 3329,  522,  523, 3334
2629,  783, 3330, 3335,  782
2630, 3330, 3331, 3336, 3335
2631, 3331, 3332, 3337, 3336
2632, 3332, 3333, 3338, 3337
2633, 3333, 3334, 3339, 3338
2634, 3334,  523,  524, 3339
2635,  782, 3335, 3340,  781
2636, 3335, 3336, 3341, 3340
2637, 3336, 3337, 3342, 3341
2638, 3337, 3338, 3343, 3342
2639, 3338, 3339, 3344, 3343
2640, 3339,  524,  525, 3344
2641,  781, 3340, 3345,  780
2642, 3340, 3341, 3346, 3345
2643, 3341, 3342, 3347, 3346
2644, 3342, 3343, 3348, 3347
2645, 3343, 3344, 3349, 3348
2646, 3344,  525,  526, 3349
2647,  780, 3345, 3350,  779
2648, 3345, 3346, 3351, 3350
2649, 3346, 3347, 3352, 3351
2650, 3347, 3348, 3353, 3352
2651, 3348, 3349, 3354, 3353
2652, 3349,  526,  527, 3354
2653,  779, 3350, 3355,  778
2654, 3350, 3351, 3356, 3355
2655, 3351, 3352, 3357, 3356
2656, 3352, 3353, 3358, 3357
2657, 3353, 3354, 3359, 3358
2658, 3354,  527,  528, 3359
2659,  778, 3355, 3360,  777
2660, 3355, 3356, 3361, 3360
2661, 3356, 3357, 3362, 3361
2662, 3357, 3358, 3363, 3362
2663, 3358, 3359, 3364, 3363
2664, 3359,  528,  529, 3364
2665,  777, 3360, 3365,  776
2666, 3360, 3361, 3366, 3365
2667, 3361, 3362, 3367, 3366
2668, 3362, 3363, 3368, 3367
2669, 3363, 3364, 3369, 3368
2670, 3364,  529,  530, 3369
2671,  776, 3365, 3370,  775
2672, 3365, 3366, 3371, 3370
2673, 3366, 3367, 3372, 3371
2674, 3367, 3368, 3373, 3372
2675, 3368, 3369, 3374, 3373
2676, 3369,  530,  531, 3374
2677,  775, 3370, 3375,  774
2678, 3370, 3371, 3376, 3375
2679, 3371, 3372, 3377, 3376
2680, 3372, 3373, 3378, 3377
2681, 3373, 3374, 3379, 3378
2682, 3374,  531,  532, 3379
2683,  774, 3375, 3380,  773
2684, 3375, 3376, 3381, 3380
2685, 3376, 3377, 3382, 3381
2686, 3377, 3378, 3383, 3382
2687, 3378, 3379, 3384, 3383
2688, 3379,  532,  533, 3384
2689,  773, 3380, 3385,  772
2690, 3380, 3381, 3386, 3385
2691, 3381, 3382, 3387, 3386
2692, 3382, 3383, 3388, 3387
2693, 3383, 3384, 3389, 3388
2694, 3384,  533,  534, 3389
2695,  772, 3385, 3390,  771
2696, 3385, 3386, 3391, 3390
2697, 3386, 3387, 3392, 3391
2698, 3387, 3388, 3393, 3392
2699, 3388, 3389, 3394, 3393
2700, 3389,  534,  535, 3394
2701,  771, 3390, 3395,  770
2702, 3390, 3391, 3396, 3395
2703, 3391, 3392, 3397, 3396
2704, 3392, 3393, 3398, 3397
2705, 3393, 3394, 3399, 3398
2706, 3394,  535,  536, 3399
2707,  770, 3395, 3400,  769
2708, 3395, 3396, 3401, 3400
2709, 3396, 3397, 3402, 3401
2710, 3397, 3398, 3403, 3402
2711, 3398, 3399, 3404, 3403
2712, 3399,  536,  537, 3404
2713,  769, 3400, 3405,  768
2714, 3400, 3401, 3406, 3405
2715, 3401, 3402, 3407, 3406
2716, 3402, 3403, 3408, 3407
2717, 3403, 3404, 3409, 3408
2718, 3404,  537,  538, 3409
2719,  768, 3405, 3410,  767
2720, 3405, 3406, 3411, 3410
2721, 3406, 3407, 3412, 3411
2722, 3407, 3408, 3413, 3412
2723, 3408, 3409, 3414, 3413
2724, 3409,  538,  539, 3414
2725,  767, 3410, 3415,  766
2726, 3410, 3411, 3416, 3415
2727, 3411, 3412, 3417, 3416
2728, 3412, 3413, 3418, 3417
2729, 3413, 3414, 3419, 3418
2730, 3414,  539,  540, 3419
2731,  766, 3415, 3420,  765
2732, 3415, 3416, 3421, 3420
2733, 3416, 3417, 3422, 3421
2734, 3417, 3418, 3423, 3422
2735, 3418, 3419, 3424, 3423
2736, 3419,  540,  541, 3424
2737,  765, 3420, 3425,  764
2738, 3420, 3421, 3426, 3425
2739, 3421, 3422, 3427, 3426
2740, 3422, 3423, 3428, 3427
2741, 3423, 3424, 3429, 3428
2742, 3424,  541,  542, 3429
2743,  764, 3425, 3430,  763
2744, 3425, 3426, 3431, 3430
2745, 3426, 3427, 3432, 3431
2746, 3427, 3428, 3433, 3432
2747, 3428, 3429, 3434, 3433
2748, 3429,  542,  543, 3434
2749,  763, 3430, 3435,  762
2750, 3430, 3431, 3436, 3435
2751, 3431, 3432, 3437, 3436
2752, 3432, 3433, 3438, 3437
2753, 3433, 3434, 3439, 3438
2754, 3434,  543,  544, 3439
2755,  762, 3435, 3440,  761
2756, 3435, 3436, 3441, 3440
2757, 3436, 3437, 3442, 3441
2758, 3437, 3438, 3443, 3442
2759, 3438, 3439, 3444, 3443
2760, 3439,  544,  545, 3444
2761,  761, 3440, 3445,  760
2762, 3440, 3441, 3446, 3445
2763, 3441, 3442, 3447, 3446
2764, 3442, 3443, 3448, 3447
2765, 3443, 3444, 3449, 3448
2766, 3444,  545,  546, 3449
2767,  760, 3445, 3450,  759
2768, 3445, 3446, 3451, 3450
2769, 3446, 3447, 3452, 3451
2770, 3447, 3448, 3453, 3452
2771, 3448, 3449, 3454, 3453
2772, 3449,  546,  547, 3454
2773,  759, 3450, 3455,  758
2774, 3450, 3451, 3456, 3455
2775, 3451, 3452, 3457, 3456
2776, 3452, 3453, 3458, 3457
2777, 3453, 3454, 3459, 3458
2778, 3454,  547,  548, 3459
2779,  758, 3455, 3460,  757
2780, 3455, 3456, 3461, 3460
2781, 3456, 3457, 3462, 3461
2782, 3457, 3458, 3463, 3462
2783, 3458, 3459, 3464, 3463
2784, 3459,  548,  549, 3464
2785,  757, 3460, 3465,  756
2786, 3460, 3461, 3466, 3465
2787, 3461, 3462, 3467, 3466
2788, 3462, 3463, 3468, 3467
2789, 3463, 3464, 3469, 3468
2790, 3464,  549,  550, 3469
2791,  756, 3465, 3470,  755
2792, 3465, 3466, 3471, 3470
2793, 3466, 3467, 3472, 3471
2794, 3467, 3468, 3473, 3472
2795, 3468, 3469, 3474, 3473
2796, 3469,  550,  551, 3474
2797,  755, 3470, 3475,  754
2798, 3470, 3471, 3476, 3475
2799, 3471, 3472, 3477, 3476
2800, 3472, 3473, 3478, 3477
2801, 3473, 3474, 3479, 3478
2802, 3474,  551,  552, 3479
2803,  754, 3475, 3480,  753
2804, 3475, 3476, 3481, 3480
2805, 3476, 3477, 3482, 3481
2806, 3477, 3478, 3483, 3482
2807, 3478, 3479, 3484, 3483
2808, 3479,  552,  553, 3484
2809,  753, 3480, 3485,  752
2810, 3480, 3481, 3486, 3485
2811, 3481, 3482, 3487, 3486
2812, 3482, 3483, 3488, 3487
2813, 3483, 3484, 3489, 3488
2814, 3484,  553,  554, 3489
2815,  752, 3485, 3490,  751
2816, 3485, 3486, 3491, 3490
2817, 3486, 3487, 3492, 3491
2818, 3487, 3488, 3493, 3492
2819, 3488, 3489, 3494, 3493
2820, 3489,  554,  555, 3494
2821,  751, 3490, 3495,  750
2822, 3490, 3491, 3496, 3495
2823, 3491, 3492, 3497, 3496
2824, 3492, 3493, 3498, 3497
2825, 3493, 3494, 3499, 3498
2826, 3494,  555,  556, 3499
2827,  750, 3495, 3500,  749
2828, 3495, 3496, 3501, 3500
2829, 3496, 3497, 3502, 3501
2830, 3497, 3498, 3503, 3502
2831, 3498, 3499, 3504, 3503
2832, 3499,  556,  557, 3504
2833,  749, 3500, 3505,  748
2834, 3500, 3501, 3506, 3505
2835, 3501, 3502, 3507, 3506
2836, 3502, 3503, 3508, 3507
2837, 3503, 3504, 3509, 3508
2838, 3504,  557,  558, 3509
2839,  748, 3505, 3510,  747
2840, 3505, 3506, 3511, 3510
2841, 3506, 3507, 3512, 3511
2842, 3507, 3508, 3513, 3512
2843, 3508, 3509, 3514, 3513
2844, 3509,  558,  559, 3514
2845,  747, 3510, 3515,  746
2846, 3510, 3511, 3516, 3515
2847, 3511, 3512, 3517, 3516
2848, 3512, 3513, 3518, 3517
2849, 3513, 3514, 3519, 3518
2850, 3514,  559,  560, 3519
2851,  746, 3515, 3520,  745
2852, 3515, 3516, 3521, 3520
2853, 3516, 3517, 3522, 3521
2854, 3517, 3518, 3523, 3522
2855, 3518, 3519, 3524, 3523
2856, 3519,  560,  561, 3524
2857,  745, 3520, 3525,  744
2858, 3520, 3521, 3526, 3525
2859, 3521, 3522, 3527, 3526
2860, 3522, 3523, 3528, 3527
2861, 3523, 3524, 3529, 3528
2862, 3524,  561,  562, 3529
2863,  744, 3525, 3530,  743
2864, 3525, 3526, 3531, 3530
2865, 3526, 3527, 3532, 3531
2866, 3527, 3528, 3533, 3532
2867, 3528, 3529, 3534, 3533
2868, 3529,  562,  563, 3534
2869,  743, 3530, 3535,  742
2870, 3530, 3531, 3536, 3535
2871, 3531, 3532, 3537, 3536
2872, 3532, 3533, 3538, 3537
2873, 3533, 3534, 3539, 3538
2874, 3534,  563,  564, 3539
2875,  742, 3535, 3540,  741
2876, 3535, 3536, 3541, 3540
2877, 3536, 3537, 3542, 3541
2878, 3537, 3538, 3543, 3542
2879, 3538, 3539, 3544, 3543
2880, 3539,  564,  565, 3544
2881,  741, 3540, 3545,  740
2882, 3540, 3541, 3546, 3545
2883, 3541, 3542, 3547, 3546
2884, 3542, 3543, 3548, 3547
2885, 3543, 3544, 3549, 3548
2886, 3544,  565,  566, 3549
2887,  740, 3545, 3550,  739
2888, 3545, 3546, 3551, 3550
2889, 3546, 3547, 3552, 3551
2890, 3547, 3548, 3553, 3552
2891, 3548, 3549, 3554, 3553
2892, 3549,  566,  567, 3554
2893,  739, 3550, 3555,  738
2894, 3550, 3551, 3556, 3555
2895, 3551, 3552, 3557, 3556
2896, 3552, 3553, 3558, 3557
2897, 3553, 3554, 3559, 3558
2898, 3554,  567,  568, 3559
2899,  738, 3555, 3560,  737
2900, 3555, 3556, 3561, 3560
2901, 3556, 3557, 3562, 3561
2902, 3557, 3558, 3563, 3562
2903, 3558, 3559, 3564, 3563
2904, 3559,  568,  569, 3564
2905,  737, 3560, 3565,  736
2906, 3560, 3561, 3566, 3565
2907, 3561, 3562, 3567, 3566
2908, 3562, 3563, 3568, 3567
2909, 3563, 3564, 3569, 3568
2910, 3564,  569,  570, 3569
2911,  736, 3565, 3570,  735
2912, 3565, 3566, 3571, 3570
2913, 3566, 3567, 3572, 3571
2914, 3567, 3568, 3573, 3572
2915, 3568, 3569, 3574, 3573
2916, 3569,  570,  571, 3574
2917,  735, 3570, 3575,  734
2918, 3570, 3571, 3576, 3575
2919, 3571, 3572, 3577, 3576
2920, 3572, 3573, 3578, 3577
2921, 3573, 3574, 3579, 3578
2922, 3574,  571,  572, 3579
2923,  734, 3575, 3580,  733
2924, 3575, 3576, 3581, 3580
2925, 3576, 3577, 3582, 3581
2926, 3577, 3578, 3583, 3582
2927, 3578, 3579, 3584, 3583
2928, 3579,  572,  573, 3584
2929,  733, 3580, 3585,  732
2930, 3580, 3581, 3586, 3585
2931, 3581, 3582, 3587, 3586
2932, 3582, 3583, 3588, 3587
2933, 3583, 3584, 3589, 3588
2934, 3584,  573,  574, 3589
2935,  732, 3585, 3590,  731
2936, 3585, 3586, 3591, 3590
2937, 3586, 3587, 3592, 3591
2938, 3587, 3588, 3593, 3592
2939, 3588, 3589, 3594, 3593
2940, 3589,  574,  575, 3594
2941,  731, 3590, 3595,  730
2942, 3590, 3591, 3596, 3595
2943, 3591, 3592, 3597, 3596
2944, 3592, 3593, 3598, 3597
2945, 3593, 3594, 3599, 3598
2946, 3594,  575,  576, 3599
2947,  730, 3595, 3600,  729
2948, 3595, 3596, 3601, 3600
2949, 3596, 3597, 3602, 3601
2950, 3597, 3598, 3603, 3602
2951, 3598, 3599, 3604, 3603
2952, 3599,  576,  577, 3604
2953,  729, 3600, 3605,  728
2954, 3600, 3601, 3606, 3605
2955, 3601, 3602, 3607, 3606
2956, 3602, 3603, 3608, 3607
2957, 3603, 3604, 3609, 3608
2958, 3604,  577,  578, 3609
2959,  728, 3605, 3610,  727
2960, 3605, 3606, 3611, 3610
2961, 3606, 3607, 3612, 3611
2962, 3607, 3608, 3613, 3612
2963, 3608, 3609, 3614, 3613
2964, 3609,  578,  579, 3614
2965,  727, 3610, 3615,  726
2966, 3610, 3611, 3616, 3615
2967, 3611, 3612, 3617, 3616
2968, 3612, 3613, 3618, 3617
2969, 3613, 3614, 3619, 3618
2970, 3614,  579,  580, 3619
2971,  726, 3615, 3620,  725
2972, 3615, 3616, 3621, 3620
2973, 3616, 3617, 3622, 3621
2974, 3617, 3618, 3623, 3622
2975, 3618, 3619, 3624, 3623
2976, 3619,  580,  581, 3624
2977,  725, 3620, 3625,  724
2978, 3620, 3621, 3626, 3625
2979, 3621, 3622, 3627, 3626
2980, 3622, 3623, 3628, 3627
2981, 3623, 3624, 3629, 3628
2982, 3624,  581,  582, 3629
2983,  724, 3625, 3630,  723
2984, 3625, 3626, 3631, 3630
2985, 3626, 3627, 3632, 3631
2986, 3627, 3628, 3633, 3632
2987, 3628, 3629, 3634, 3633
2988, 3629,  582,  583, 3634
2989,  723, 3630, 3635,  722
2990, 3630, 3631, 3636, 3635
2991, 3631, 3632, 3637, 3636
2992, 3632, 3633, 3638, 3637
2993, 3633, 3634, 3639, 3638
2994, 3634,  583,  584, 3639
2995,  722, 3635, 3640,  721
2996, 3635, 3636, 3641, 3640
2997, 3636, 3637, 3642, 3641
2998, 3637, 3638, 3643, 3642
2999, 3638, 3639, 3644, 3643
3000, 3639,  584,  585, 3644
3001,  721, 3640, 3645,  720
3002, 3640, 3641, 3646, 3645
3003, 3641, 3642, 3647, 3646
3004, 3642, 3643, 3648, 3647
3005, 3643, 3644, 3649, 3648
3006, 3644,  585,  586, 3649
3007,  720, 3645, 3650,  719
3008, 3645, 3646, 3651, 3650
3009, 3646, 3647, 3652, 3651
3010, 3647, 3648, 3653, 3652
3011, 3648, 3649, 3654, 3653
3012, 3649,  586,  587, 3654
3013,  719, 3650, 3655,  718
3014, 3650, 3651, 3656, 3655
3015, 3651, 3652, 3657, 3656
3016, 3652, 3653, 3658, 3657
3017, 3653, 3654, 3659, 3658
3018, 3654,  587,  588, 3659
3019,  718, 3655, 3660,  717
3020, 3655, 3656, 3661, 3660
3021, 3656, 3657, 3662, 3661
3022, 3657, 3658, 3663, 3662
3023, 3658, 3659, 3664, 3663
3024, 3659,  588,  589, 3664
3025,  717, 3660, 3665,  716
3026, 3660, 3661, 3666, 3665
3027, 3661, 3662, 3667, 3666
3028, 3662, 3663, 3668, 3667
3029, 3663, 3664, 3669, 3668
3030, 3664,  589,  590, 3669
3031,  716, 3665, 3670,  715
3032, 3665, 3666, 3671, 3670
3033, 3666, 3667, 3672, 3671
3034, 3667, 3668, 3673, 3672
3035, 3668, 3669, 3674, 3673
3036, 3669,  590,  591, 3674
3037,  715, 3670, 3675,  714
3038, 3670, 3671, 3676, 3675
3039, 3671, 3672, 3677, 3676
3040, 3672, 3673, 3678, 3677
3041, 3673, 3674, 3679, 3678
3042, 3674,  591,  592, 3679
3043,  714, 3675, 3680,  713
3044, 3675, 3676, 3681, 3680
3045, 3676, 3677, 3682, 3681
3046, 3677, 3678, 3683, 3682
3047, 3678, 3679, 3684, 3683
3048, 3679,  592,  593, 3684
3049,  713, 3680, 3685,  712
3050, 3680, 3681, 3686, 3685
3051, 3681, 3682, 3687, 3686
3052, 3682, 3683, 3688, 3687
3053, 3683, 3684, 3689, 3688
3054, 3684,  593,  594, 3689
3055,  712, 3685, 3690,  711
3056, 3685, 3686, 3691, 3690
3057, 3686, 3687, 3692, 3691
3058, 3687, 3688, 3693, 3692
3059, 3688, 3689, 3694, 3693
3060, 3689,  594,  595, 3694
3061,  711, 3690, 3695,  710
3062, 3690, 3691, 3696, 3695
3063, 3691, 3692, 3697, 3696
3064, 3692, 3693, 3698, 3697
3065, 3693, 3694, 3699, 3698
3066, 3694,  595,  596, 3699
3067,  710, 3695, 3700,  709
3068, 3695, 3696, 3701, 3700
3069, 3696, 3697, 3702, 3701
3070, 3697, 3698, 3703, 3702
3071, 3698, 3699, 3704, 3703
3072, 3699,  596,  597, 3704
3073,  709, 3700, 3705,  708
3074, 3700, 3701, 3706, 3705
3075, 3701, 3702, 3707, 3706
3076, 3702, 3703, 3708, 3707
3077, 3703, 3704, 3709, 3708
3078, 3704,  597,  598, 3709
3079,  708, 3705, 3710,  707
3080, 3705, 3706, 3711, 3710
3081, 3706, 3707, 3712, 3711
3082, 3707, 3708, 3713, 3712
3083, 3708, 3709, 3714, 3713
3084, 3709,  598,  599, 3714
3085,  707, 3710, 3715,  706
3086, 3710, 3711, 3716, 3715
3087, 3711, 3712, 3717, 3716
3088, 3712, 3713, 3718, 3717
3089, 3713, 3714, 3719, 3718
3090, 3714,  599,  600, 3719
3091,  706, 3715, 3720,  705
3092, 3715, 3716, 3721, 3720
3093, 3716, 3717, 3722, 3721
3094, 3717, 3718, 3723, 3722
3095, 3718, 3719, 3724, 3723
3096, 3719,  600,  601, 3724
3097,  705, 3720, 3725,  704
3098, 3720, 3721, 3726, 3725
3099, 3721, 3722, 3727, 3726
3100, 3722, 3723, 3728, 3727
3101, 3723, 3724, 3729, 3728
3102, 3724,  601,  602, 3729
3103,  704, 3725, 3730,  703
3104, 3725, 3726, 3731, 3730
3105, 3726, 3727, 3732, 3731
3106, 3727, 3728, 3733, 3732
3107, 3728, 3729, 3734, 3733
3108, 3729,  602,  603, 3734
3109,  703, 3730, 3735,  702
3110, 3730, 3731, 3736, 3735
3111, 3731, 3732, 3737, 3736
3112, 3732, 3733, 3738, 3737
3113, 3733, 3734, 3739, 3738
3114, 3734,  603,  604, 3739
3115,  702, 3735, 3740,  701
3116, 3735, 3736, 3741, 3740
3117, 3736, 3737, 3742, 3741
3118, 3737, 3738, 3743, 3742
3119, 3738, 3739, 3744, 3743
3120, 3739,  604,  605, 3744
3121,  701, 3740, 3745,  700
3122, 3740, 3741, 3746, 3745
3123, 3741, 3742, 3747, 3746
3124, 3742, 3743, 3748, 3747
3125, 3743, 3744, 3749, 3748
3126, 3744,  605,  606, 3749
3127,  700, 3745, 3750,  699
3128, 3745, 3746, 3751, 3750
3129, 3746, 3747, 3752, 3751
3130, 3747, 3748, 3753, 3752
3131, 3748, 3749, 3754, 3753
3132, 3749,  606,  607, 3754
3133,  699, 3750, 3755,  698
3134, 3750, 3751, 3756, 3755
3135, 3751, 3752, 3757, 3756
3136, 3752, 3753, 3758, 3757
3137, 3753, 3754, 3759, 3758
3138, 3754,  607,  608, 3759
3139,  698, 3755, 3760,  697
3140, 3755, 3756, 3761, 3760
3141, 3756, 3757, 3762, 3761
3142, 3757, 3758, 3763, 3762
3143, 3758, 3759, 3764, 3763
3144, 3759,  608,  609, 3764
3145,  697, 3760, 3765,  696
3146, 3760, 3761, 3766, 3765
3147, 3761, 3762, 3767, 3766
3148, 3762, 3763, 3768, 3767
3149, 3763, 3764, 3769, 3768
3150, 3764,  609,  610, 3769
3151,  696, 3765, 3770,  695
3152, 3765, 3766, 3771, 3770
3153, 3766, 3767, 3772, 3771
3154, 3767, 3768, 3773, 3772
3155, 3768, 3769, 3774, 3773
3156, 3769,  610,  611, 3774
3157,  695, 3770, 3775,  694
3158, 3770, 3771, 3776, 3775
3159, 3771, 3772, 3777, 3776
3160, 3772, 3773, 3778, 3777
3161, 3773, 3774, 3779, 3778
3162, 3774,  611,  612, 3779
3163,  694, 3775, 3780,  693
3164, 3775, 3776, 3781, 3780
3165, 3776, 3777, 3782, 3781
3166, 3777, 3778, 3783, 3782
3167, 3778, 3779, 3784, 3783
3168, 3779,  612,  613, 3784
3169,  693, 3780, 3785,  692
3170, 3780, 3781, 3786, 3785
3171, 3781, 3782, 3787, 3786
3172, 3782, 3783, 3788, 3787
3173, 3783, 3784, 3789, 3788
3174, 3784,  613,  614, 3789
3175,  692, 3785, 3790,  691
3176, 3785, 3786, 3791, 3790
3177, 3786, 3787, 3792, 3791
3178, 3787, 3788, 3793, 3792
3179, 3788, 3789, 3794, 3793
3180, 3789,  614,  615, 3794
3181,  691, 3790, 3795,  690
3182, 3790, 3791, 3796, 3795
3183, 3791, 3792, 3797, 3796
3184, 3792, 3793, 3798, 3797
3185, 3793, 3794, 3799, 3798
3186, 3794,  615,  616, 3799
3187,  690, 3795, 3800,  689
3188, 3795, 3796, 3801, 3800
3189, 3796, 3797, 3802, 3801
3190, 3797, 3798, 3803, 3802
3191, 3798, 3799, 3804, 3803
3192, 3799,  616,  617, 3804
3193,  689, 3800, 3805,  688
3194, 3800, 3801, 3806, 3805
3195, 3801, 3802, 3807, 3806
3196, 3802, 3803, 3808, 3807
3197, 3803, 3804, 3809, 3808
3198, 3804,  617,  618, 3809
3199,  688, 3805, 3810,  687
3200, 3805, 3806, 3811, 3810
3201, 3806, 3807, 3812, 3811
3202, 3807, 3808, 3813, 3812
3203, 3808, 3809, 3814, 3813
3204, 3809,  618,  619, 3814
3205,  687, 3810, 3815,  686
3206, 3810, 3811, 3816, 3815
3207, 3811, 3812, 3817, 3816
3208, 3812, 3813, 3818, 3817
3209, 3813, 3814, 3819, 3818
3210, 3814,  619,  620, 3819
3211,  686, 3815, 3820,  685
3212, 3815, 3816, 3821, 3820
3213, 3816, 3817, 3822, 3821
3214, 3817, 3818, 3823, 3822
3215, 3818, 3819, 3824, 3823
3216, 3819,  620,  621, 3824
3217,  685, 3820, 3825,  684
3218, 3820, 3821, 3826, 3825
3219, 3821, 3822, 3827, 3826
3220, 3822, 3823, 3828, 3827
3221, 3823, 3824, 3829, 3828
3222, 3824,  621,  622, 3829
3223,  684, 3825, 3830,  683
3224, 3825, 3826, 3831, 3830
3225, 3826, 3827, 3832, 3831
3226, 3827, 3828, 3833, 3832
3227, 3828, 3829, 3834, 3833
3228, 3829,  622,  623, 3834
3229,  683, 3830, 3835,  682
3230, 3830, 3831, 3836, 3835
3231, 3831, 3832, 3837, 3836
3232, 3832, 3833, 3838, 3837
3233, 3833, 3834, 3839, 3838
3234, 3834,  623,  624, 3839
3235,  682, 3835, 3840,  681
3236, 3835, 3836, 3841, 3840
3237, 3836, 3837, 3842, 3841
3238, 3837, 3838, 3843, 3842
3239, 3838, 3839, 3844, 3843
3240, 3839,  624,  625, 3844
3241,  681, 3840, 3845,  680
3242, 3840, 3841, 3846, 3845
3243, 3841, 3842, 3847, 3846
3244, 3842, 3843, 3848, 3847
3245, 3843, 3844, 3849, 3848
3246, 3844,  625,  626, 3849
3247,  680, 3845, 3850,  679
3248, 3845, 3846, 3851, 3850
3249, 3846, 3847, 3852, 3851
3250, 3847, 3848, 3853, 3852
3251, 3848, 3849, 3854, 3853
3252, 3849,  626,  627, 3854
3253,  679, 3850, 3855,  678
3254, 3850, 3851, 3856, 3855
3255, 3851, 3852, 3857, 3856
3256, 3852, 3853, 3858, 3857
3257, 3853, 3854, 3859, 3858
3258, 3854,  627,  628, 3859
3259,  678, 3855, 3860,  677
3260, 3855, 3856, 3861, 3860
3261, 3856, 3857, 3862, 3861
3262, 3857, 3858, 3863, 3862
3263, 3858, 3859, 3864, 3863
3264, 3859,  628,  629, 3864
3265,  677, 3860, 3865,  676
3266, 3860, 3861, 3866, 3865
3267, 3861, 3862, 3867, 3866
3268, 3862, 3863, 3868, 3867
3269, 3863, 3864, 3869, 3868
3270, 3864,  629,  630, 3869
3271,  676, 3865, 3870,  675
3272, 3865, 3866, 3871, 3870
3273, 3866, 3867, 3872, 3871
3274, 3867, 3868, 3873, 3872
3275, 3868, 3869, 3874, 3873
3276, 3869,  630,  631, 3874
3277,  675, 3870, 3875,  674
3278, 3870, 3871, 3876, 3875
3279, 3871, 3872, 3877, 3876
3280, 3872, 3873, 3878, 3877
3281, 3873, 3874, 3879, 3878
3282, 3874,  631,  632, 3879
3283,  674, 3875, 3880,  673
3284, 3875, 3876, 3881, 3880
3285, 3876, 3877, 3882, 3881
3286, 3877, 3878, 3883, 3882
3287, 3878, 3879, 3884, 3883
3288, 3879,  632,  633, 3884
3289,  673, 3880, 3885,  672
3290, 3880, 3881, 3886, 3885
3291, 3881, 3882, 3887, 3886
3292, 3882, 3883, 3888, 3887
3293, 3883, 3884, 3889, 3888
3294, 3884,  633,  634, 3889
3295,  672, 3885, 3890,  671
3296, 3885, 3886, 3891, 3890
3297, 3886, 3887, 3892, 3891
3298, 3887, 3888, 3893, 3892
3299, 3888, 3889, 3894, 3893
3300, 3889,  634,  635, 3894
3301,  671, 3890, 3895,  670
3302, 3890, 3891, 3896, 3895
3303, 3891, 3892, 3897, 3896
3304, 3892, 3893, 3898, 3897
3305, 3893, 3894, 3899, 3898
3306, 3894,  635,  636, 3899
3307,  670, 3895, 3900,  669
3308, 3895, 3896, 3901, 3900
3309, 3896, 3897, 3902, 3901
3310, 3897, 3898, 3903, 3902
3311, 3898, 3899, 3904, 3903
3312, 3899,  636,  637, 3904
3313,  669, 3900, 3905,  668
3314, 3900, 3901, 3906, 3905
3315, 3901, 3902, 3907, 3906
3316, 3902, 3903, 3908, 3907
3317, 3903, 3904, 3909, 3908
3318, 3904,  637,  638, 3909
3319,  668, 3905, 3910,  667
3320, 3905, 3906, 3911, 3910
3321, 3906, 3907, 3912, 3911
3322, 3907, 3908, 3913, 3912
3323, 3908, 3909, 3914, 3913
3324, 3909,  638,  639, 3914
3325,  667, 3910, 3915,  666
3326, 3910, 3911, 3916, 3915
3327, 3911, 3912, 3917, 3916
3328, 3912, 3913, 3918, 3917
3329, 3913, 3914, 3919, 3918
3330, 3914,  639,  640, 3919
3331,  666, 3915, 3920,  665
3332, 3915, 3916, 3921, 3920
3333, 3916, 3917, 3922, 3921
3334, 3917, 3918, 3923, 3922
3335, 3918, 3919, 3924, 3923
3336, 3919,  640,  641, 3924
3337,  665, 3920, 3925,  664
3338, 3920, 3921, 3926, 3925
3339, 3921, 3922, 3927, 3926
3340, 3922, 3923, 3928, 3927
3341, 3923, 3924, 3929, 3928
3342, 3924,  641,  642, 3929
3343,  664, 3925, 3930,  663
3344, 3925, 3926, 3931, 3930
3345, 3926, 3927, 3932, 3931
3346, 3927, 3928, 3933, 3932
3347, 3928, 3929, 3934, 3933
3348, 3929,  642,  643, 3934
3349,  663, 3930, 3935,  662
3350, 3930, 3931, 3936, 3935
3351, 3931, 3932, 3937, 3936
3352, 3932, 3933, 3938, 3937
3353, 3933, 3934, 3939, 3938
3354, 3934,  643,  644, 3939
3355,  662, 3935, 3940,  661
3356, 3935, 3936, 3941, 3940
3357, 3936, 3937, 3942, 3941
3358, 3937, 3938, 3943, 3942
3359, 3938, 3939, 3944, 3943
3360, 3939,  644,  645, 3944
3361,  661, 3940, 3945,  660
3362, 3940, 3941, 3946, 3945
3363, 3941, 3942, 3947, 3946
3364, 3942, 3943, 3948, 3947
3365, 3943, 3944, 3949, 3948
3366, 3944,  645,  646, 3949
3367,  660, 3945, 3950,  659
3368, 3945, 3946, 3951, 3950
3369, 3946, 3947, 3952, 3951
3370, 3947, 3948, 3953, 3952
3371, 3948, 3949, 3954, 3953
3372, 3949,  646,  647, 3954
3373,  659, 3950, 3955,  658
3374, 3950, 3951, 3956, 3955
3375, 3951, 3952, 3957, 3956
3376, 3952, 3953, 3958, 3957
3377, 3953, 3954, 3959, 3958
3378, 3954,  647,  648, 3959
3379,  658, 3955, 3960,  657
3380, 3955, 3956, 3961, 3960
3381, 3956, 3957, 3962, 3961
3382, 3957, 3958, 3963, 3962
3383, 3958, 3959, 3964, 3963
3384, 3959,  648,  649, 3964
3385,  657, 3960, 3965,  656
3386, 3960, 3961, 3966, 3965
3387, 3961, 3962, 3967, 3966
3388, 3962, 3963, 3968, 3967
3389, 3963, 3964, 3969, 3968
3390, 3964,  649,  650, 3969
3391,  656, 3965,  655,   10
3392, 3965, 3966,  654,  655
3393, 3966, 3967,  653,  654
3394, 3967, 3968,  652,  653
3395, 3968, 3969,  651,  652
3396, 3969,  650,    9,  651
*Nset, nset=Set-1, generate
    1,  3969,     1
*Elset, elset=Set-1, generate
    1,  3396,     1
** Section: Adhesive
*Solid Section, elset=Set-1, material=Adhesive
1.,
*End Part
**  
*Part, name=cohesive
*Node
      1,         -30.,   7.30000019
      2,  -29.8999996,   7.30000019
      3,  -29.7999992,   7.30000019
      4,  -29.7000008,   7.30000019
      5,  -29.6000004,   7.30000019
      6,        -29.5,   7.30000019
      7,  -29.3999996,   7.30000019
      8,  -29.2999992,   7.30000019
      9,  -29.2000008,   7.30000019
     10,  -29.1000004,   7.30000019
     11,         -29.,   7.30000019
     12,  -28.8999996,   7.30000019
     13,  -28.7999992,   7.30000019
     14,  -28.7000008,   7.30000019
     15,  -28.6000004,   7.30000019
     16,        -28.5,   7.30000019
     17,  -28.3999996,   7.30000019
     18,  -28.2999992,   7.30000019
     19,  -28.2000008,   7.30000019
     20,  -28.1000004,   7.30000019
     21,         -28.,   7.30000019
     22,  -27.8999996,   7.30000019
     23,  -27.7999992,   7.30000019
     24,  -27.7000008,   7.30000019
     25,  -27.6000004,   7.30000019
     26,        -27.5,   7.30000019
     27,  -27.3999996,   7.30000019
     28,  -27.2999992,   7.30000019
     29,  -27.2000008,   7.30000019
     30,  -27.1000004,   7.30000019
     31,         -27.,   7.30000019
     32,  -26.8999996,   7.30000019
     33,  -26.7999992,   7.30000019
     34,  -26.7000008,   7.30000019
     35,  -26.6000004,   7.30000019
     36,        -26.5,   7.30000019
     37,  -26.3999996,   7.30000019
     38,  -26.2999992,   7.30000019
     39,  -26.2000008,   7.30000019
     40,  -26.1000004,   7.30000019
     41,         -26.,   7.30000019
     42,  -25.8999996,   7.30000019
     43,  -25.7999992,   7.30000019
     44,  -25.7000008,   7.30000019
     45,  -25.6000004,   7.30000019
     46,        -25.5,   7.30000019
     47,  -25.3999996,   7.30000019
     48,  -25.2999992,   7.30000019
     49,  -25.2000008,   7.30000019
     50,  -25.1000004,   7.30000019
     51,         -25.,   7.30000019
     52,  -24.8999996,   7.30000019
     53,  -24.7999992,   7.30000019
     54,  -24.7000008,   7.30000019
     55,  -24.6000004,   7.30000019
     56,        -24.5,   7.30000019
     57,  -24.3999996,   7.30000019
     58,  -24.2999992,   7.30000019
     59,  -24.2000008,   7.30000019
     60,  -24.1000004,   7.30000019
     61,         -24.,   7.30000019
     62,  -23.8999996,   7.30000019
     63,  -23.7999992,   7.30000019
     64,  -23.7000008,   7.30000019
     65,  -23.6000004,   7.30000019
     66,        -23.5,   7.30000019
     67,  -23.3999996,   7.30000019
     68,  -23.2999992,   7.30000019
     69,  -23.2000008,   7.30000019
     70,  -23.1000004,   7.30000019
     71,         -23.,   7.30000019
     72,  -22.8999996,   7.30000019
     73,  -22.7999992,   7.30000019
     74,  -22.7000008,   7.30000019
     75,  -22.6000004,   7.30000019
     76,        -22.5,   7.30000019
     77,  -22.3999996,   7.30000019
     78,  -22.2999992,   7.30000019
     79,  -22.2000008,   7.30000019
     80,  -22.1000004,   7.30000019
     81,         -22.,   7.30000019
     82,  -21.8999996,   7.30000019
     83,  -21.7999992,   7.30000019
     84,  -21.7000008,   7.30000019
     85,  -21.6000004,   7.30000019
     86,        -21.5,   7.30000019
     87,  -21.3999996,   7.30000019
     88,  -21.2999992,   7.30000019
     89,  -21.2000008,   7.30000019
     90,  -21.1000004,   7.30000019
     91,         -21.,   7.30000019
     92,  -20.8999996,   7.30000019
     93,  -20.7999992,   7.30000019
     94,  -20.7000008,   7.30000019
     95,  -20.6000004,   7.30000019
     96,        -20.5,   7.30000019
     97,  -20.3999996,   7.30000019
     98,  -20.2999992,   7.30000019
     99,  -20.2000008,   7.30000019
    100,  -20.1000004,   7.30000019
    101,         -20.,   7.30000019
    102,  -19.8999996,   7.30000019
    103,  -19.7999992,   7.30000019
    104,  -19.7000008,   7.30000019
    105,  -19.6000004,   7.30000019
    106,        -19.5,   7.30000019
    107,  -19.3999996,   7.30000019
    108,  -19.2999992,   7.30000019
    109,  -19.2000008,   7.30000019
    110,  -19.1000004,   7.30000019
    111,         -19.,   7.30000019
    112,  -18.8999996,   7.30000019
    113,  -18.7999992,   7.30000019
    114,  -18.7000008,   7.30000019
    115,  -18.6000004,   7.30000019
    116,        -18.5,   7.30000019
    117,  -18.3999996,   7.30000019
    118,  -18.2999992,   7.30000019
    119,  -18.2000008,   7.30000019
    120,  -18.1000004,   7.30000019
    121,         -18.,   7.30000019
    122,  -17.8999996,   7.30000019
    123,  -17.7999992,   7.30000019
    124,  -17.7000008,   7.30000019
    125,  -17.6000004,   7.30000019
    126,        -17.5,   7.30000019
    127,  -17.3999996,   7.30000019
    128,  -17.2999992,   7.30000019
    129,  -17.2000008,   7.30000019
    130,  -17.1000004,   7.30000019
    131,         -17.,   7.30000019
    132,  -16.8999996,   7.30000019
    133,  -16.7999992,   7.30000019
    134,  -16.7000008,   7.30000019
    135,  -16.6000004,   7.30000019
    136,        -16.5,   7.30000019
    137,  -16.3999996,   7.30000019
    138,  -16.2999992,   7.30000019
    139,  -16.2000008,   7.30000019
    140,  -16.1000004,   7.30000019
    141,         -16.,   7.30000019
    142,  -15.8999996,   7.30000019
    143,  -15.8000002,   7.30000019
    144,  -15.6999998,   7.30000019
    145,  -15.6000004,   7.30000019
    146,        -15.5,   7.30000019
    147,  -15.3999996,   7.30000019
    148,  -15.3000002,   7.30000019
    149,  -15.1999998,   7.30000019
    150,  -15.1000004,   7.30000019
    151,         -15.,   7.30000019
    152,  -14.8999996,   7.30000019
    153,  -14.8000002,   7.30000019
    154,  -14.6999998,   7.30000019
    155,  -14.6000004,   7.30000019
    156,        -14.5,   7.30000019
    157,  -14.3999996,   7.30000019
    158,  -14.3000002,   7.30000019
    159,  -14.1999998,   7.30000019
    160,  -14.1000004,   7.30000019
    161,         -14.,   7.30000019
    162,  -13.8999996,   7.30000019
    163,  -13.8000002,   7.30000019
    164,  -13.6999998,   7.30000019
    165,  -13.6000004,   7.30000019
    166,        -13.5,   7.30000019
    167,  -13.3999996,   7.30000019
    168,  -13.3000002,   7.30000019
    169,  -13.1999998,   7.30000019
    170,  -13.1000004,   7.30000019
    171,         -13.,   7.30000019
    172,  -12.8999996,   7.30000019
    173,  -12.8000002,   7.30000019
    174,  -12.6999998,   7.30000019
    175,  -12.6000004,   7.30000019
    176,        -12.5,   7.30000019
    177,  -12.3999996,   7.30000019
    178,  -12.3000002,   7.30000019
    179,  -12.1999998,   7.30000019
    180,  -12.1000004,   7.30000019
    181,         -12.,   7.30000019
    182,  -11.8999996,   7.30000019
    183,  -11.8000002,   7.30000019
    184,  -11.6999998,   7.30000019
    185,  -11.6000004,   7.30000019
    186,        -11.5,   7.30000019
    187,  -11.3999996,   7.30000019
    188,  -11.3000002,   7.30000019
    189,  -11.1999998,   7.30000019
    190,  -11.1000004,   7.30000019
    191,         -11.,   7.30000019
    192,  -10.8999996,   7.30000019
    193,  -10.8000002,   7.30000019
    194,  -10.6999998,   7.30000019
    195,  -10.6000004,   7.30000019
    196,        -10.5,   7.30000019
    197,  -10.3999996,   7.30000019
    198,  -10.3000002,   7.30000019
    199,  -10.1999998,   7.30000019
    200,  -10.1000004,   7.30000019
    201,         -10.,   7.30000019
    202,  -9.89999962,   7.30000019
    203,  -9.80000019,   7.30000019
    204,  -9.69999981,   7.30000019
    205,  -9.60000038,   7.30000019
    206,         -9.5,   7.30000019
    207,  -9.39999962,   7.30000019
    208,  -9.30000019,   7.30000019
    209,  -9.19999981,   7.30000019
    210,  -9.10000038,   7.30000019
    211,          -9.,   7.30000019
    212,  -8.89999962,   7.30000019
    213,  -8.80000019,   7.30000019
    214,  -8.69999981,   7.30000019
    215,  -8.60000038,   7.30000019
    216,         -8.5,   7.30000019
    217,  -8.39999962,   7.30000019
    218,  -8.30000019,   7.30000019
    219,  -8.19999981,   7.30000019
    220,  -8.10000038,   7.30000019
    221,          -8.,   7.30000019
    222,   -7.9000001,   7.30000019
    223,  -7.80000019,   7.30000019
    224,  -7.69999981,   7.30000019
    225,   -7.5999999,   7.30000019
    226,         -7.5,   7.30000019
    227,   -7.4000001,   7.30000019
    228,  -7.30000019,   7.30000019
    229,  -7.19999981,   7.30000019
    230,   -7.0999999,   7.30000019
    231,          -7.,   7.30000019
    232,   -6.9000001,   7.30000019
    233,  -6.80000019,   7.30000019
    234,  -6.69999981,   7.30000019
    235,   -6.5999999,   7.30000019
    236,         -6.5,   7.30000019
    237,   -6.4000001,   7.30000019
    238,  -6.30000019,   7.30000019
    239,  -6.19999981,   7.30000019
    240,   -6.0999999,   7.30000019
    241,          -6.,   7.30000019
    242,   -5.9000001,   7.30000019
    243,  -5.80000019,   7.30000019
    244,  -5.69999981,   7.30000019
    245,   -5.5999999,   7.30000019
    246,         -5.5,   7.30000019
    247,   -5.4000001,   7.30000019
    248,  -5.30000019,   7.30000019
    249,  -5.19999981,   7.30000019
    250,   -5.0999999,   7.30000019
    251,          -5.,   7.30000019
    252,   -4.9000001,   7.30000019
    253,  -4.80000019,   7.30000019
    254,  -4.69999981,   7.30000019
    255,   -4.5999999,   7.30000019
    256,         -4.5,   7.30000019
    257,   -4.4000001,   7.30000019
    258,  -4.30000019,   7.30000019
    259,  -4.19999981,   7.30000019
    260,   -4.0999999,   7.30000019
    261,          -4.,   7.30000019
    262,   -3.9000001,   7.30000019
    263,  -3.79999995,   7.30000019
    264,  -3.70000005,   7.30000019
    265,   -3.5999999,   7.30000019
    266,         -3.5,   7.30000019
    267,   -3.4000001,   7.30000019
    268,  -3.29999995,   7.30000019
    269,  -3.20000005,   7.30000019
    270,   -3.0999999,   7.30000019
    271,          -3.,   7.30000019
    272,   -2.9000001,   7.30000019
    273,  -2.79999995,   7.30000019
    274,  -2.70000005,   7.30000019
    275,   -2.5999999,   7.30000019
    276,         -2.5,   7.30000019
    277,   -2.4000001,   7.30000019
    278,  -2.29999995,   7.30000019
    279,  -2.20000005,   7.30000019
    280,   -2.0999999,   7.30000019
    281,          -2.,   7.30000019
    282,  -1.89999998,   7.30000019
    283,  -1.79999995,   7.30000019
    284,  -1.70000005,   7.30000019
    285,  -1.60000002,   7.30000019
    286,         -1.5,   7.30000019
    287,  -1.39999998,   7.30000019
    288,  -1.29999995,   7.30000019
    289,  -1.20000005,   7.30000019
    290,  -1.10000002,   7.30000019
    291,          -1.,   7.30000019
    292, -0.899999976,   7.30000019
    293, -0.800000012,   7.30000019
    294, -0.699999988,   7.30000019
    295, -0.600000024,   7.30000019
    296,         -0.5,   7.30000019
    297, -0.400000006,   7.30000019
    298, -0.300000012,   7.30000019
    299, -0.200000003,   7.30000019
    300, -0.100000001,   7.30000019
    301,           0.,   7.30000019
    302,  0.100000001,   7.30000019
    303,  0.200000003,   7.30000019
    304,  0.300000012,   7.30000019
    305,  0.400000006,   7.30000019
    306,          0.5,   7.30000019
    307,  0.600000024,   7.30000019
    308,  0.699999988,   7.30000019
    309,  0.800000012,   7.30000019
    310,  0.899999976,   7.30000019
    311,           1.,   7.30000019
    312,   1.10000002,   7.30000019
    313,   1.20000005,   7.30000019
    314,   1.29999995,   7.30000019
    315,   1.39999998,   7.30000019
    316,          1.5,   7.30000019
    317,   1.60000002,   7.30000019
    318,   1.70000005,   7.30000019
    319,   1.79999995,   7.30000019
    320,   1.89999998,   7.30000019
    321,           2.,   7.30000019
    322,    2.0999999,   7.30000019
    323,   2.20000005,   7.30000019
    324,   2.29999995,   7.30000019
    325,    2.4000001,   7.30000019
    326,          2.5,   7.30000019
    327,    2.5999999,   7.30000019
    328,   2.70000005,   7.30000019
    329,   2.79999995,   7.30000019
    330,    2.9000001,   7.30000019
    331,           3.,   7.30000019
    332,    3.0999999,   7.30000019
    333,   3.20000005,   7.30000019
    334,   3.29999995,   7.30000019
    335,    3.4000001,   7.30000019
    336,          3.5,   7.30000019
    337,    3.5999999,   7.30000019
    338,   3.70000005,   7.30000019
    339,   3.79999995,   7.30000019
    340,    3.9000001,   7.30000019
    341,           4.,   7.30000019
    342,    4.0999999,   7.30000019
    343,   4.19999981,   7.30000019
    344,   4.30000019,   7.30000019
    345,    4.4000001,   7.30000019
    346,          4.5,   7.30000019
    347,    4.5999999,   7.30000019
    348,   4.69999981,   7.30000019
    349,   4.80000019,   7.30000019
    350,    4.9000001,   7.30000019
    351,           5.,   7.30000019
    352,    5.0999999,   7.30000019
    353,   5.19999981,   7.30000019
    354,   5.30000019,   7.30000019
    355,    5.4000001,   7.30000019
    356,          5.5,   7.30000019
    357,    5.5999999,   7.30000019
    358,   5.69999981,   7.30000019
    359,   5.80000019,   7.30000019
    360,    5.9000001,   7.30000019
    361,           6.,   7.30000019
    362,    6.0999999,   7.30000019
    363,   6.19999981,   7.30000019
    364,   6.30000019,   7.30000019
    365,    6.4000001,   7.30000019
    366,          6.5,   7.30000019
    367,    6.5999999,   7.30000019
    368,   6.69999981,   7.30000019
    369,   6.80000019,   7.30000019
    370,    6.9000001,   7.30000019
    371,           7.,   7.30000019
    372,    7.0999999,   7.30000019
    373,   7.19999981,   7.30000019
    374,   7.30000019,   7.30000019
    375,    7.4000001,   7.30000019
    376,          7.5,   7.30000019
    377,    7.5999999,   7.30000019
    378,   7.69999981,   7.30000019
    379,   7.80000019,   7.30000019
    380,    7.9000001,   7.30000019
    381,           8.,   7.30000019
    382,   8.10000038,   7.30000019
    383,   8.19999981,   7.30000019
    384,   8.30000019,   7.30000019
    385,   8.39999962,   7.30000019
    386,          8.5,   7.30000019
    387,   8.60000038,   7.30000019
    388,   8.69999981,   7.30000019
    389,   8.80000019,   7.30000019
    390,   8.89999962,   7.30000019
    391,           9.,   7.30000019
    392,   9.10000038,   7.30000019
    393,   9.19999981,   7.30000019
    394,   9.30000019,   7.30000019
    395,   9.39999962,   7.30000019
    396,          9.5,   7.30000019
    397,   9.60000038,   7.30000019
    398,   9.69999981,   7.30000019
    399,   9.80000019,   7.30000019
    400,   9.89999962,   7.30000019
    401,          10.,   7.30000019
    402,   10.1000004,   7.30000019
    403,   10.1999998,   7.30000019
    404,   10.3000002,   7.30000019
    405,   10.3999996,   7.30000019
    406,         10.5,   7.30000019
    407,   10.6000004,   7.30000019
    408,   10.6999998,   7.30000019
    409,   10.8000002,   7.30000019
    410,   10.8999996,   7.30000019
    411,          11.,   7.30000019
    412,   11.1000004,   7.30000019
    413,   11.1999998,   7.30000019
    414,   11.3000002,   7.30000019
    415,   11.3999996,   7.30000019
    416,         11.5,   7.30000019
    417,   11.6000004,   7.30000019
    418,   11.6999998,   7.30000019
    419,   11.8000002,   7.30000019
    420,   11.8999996,   7.30000019
    421,          12.,   7.30000019
    422,   12.1000004,   7.30000019
    423,   12.1999998,   7.30000019
    424,   12.3000002,   7.30000019
    425,   12.3999996,   7.30000019
    426,         12.5,   7.30000019
    427,   12.6000004,   7.30000019
    428,   12.6999998,   7.30000019
    429,   12.8000002,   7.30000019
    430,   12.8999996,   7.30000019
    431,          13.,   7.30000019
    432,   13.1000004,   7.30000019
    433,   13.1999998,   7.30000019
    434,   13.3000002,   7.30000019
    435,   13.3999996,   7.30000019
    436,         13.5,   7.30000019
    437,   13.6000004,   7.30000019
    438,   13.6999998,   7.30000019
    439,   13.8000002,   7.30000019
    440,   13.8999996,   7.30000019
    441,          14.,   7.30000019
    442,   14.1000004,   7.30000019
    443,   14.1999998,   7.30000019
    444,   14.3000002,   7.30000019
    445,   14.3999996,   7.30000019
    446,         14.5,   7.30000019
    447,   14.6000004,   7.30000019
    448,   14.6999998,   7.30000019
    449,   14.8000002,   7.30000019
    450,   14.8999996,   7.30000019
    451,          15.,   7.30000019
    452,   15.1000004,   7.30000019
    453,   15.1999998,   7.30000019
    454,   15.3000002,   7.30000019
    455,   15.3999996,   7.30000019
    456,         15.5,   7.30000019
    457,   15.6000004,   7.30000019
    458,   15.6999998,   7.30000019
    459,   15.8000002,   7.30000019
    460,   15.8999996,   7.30000019
    461,          16.,   7.30000019
    462,   16.1000004,   7.30000019
    463,   16.2000008,   7.30000019
    464,   16.2999992,   7.30000019
    465,   16.3999996,   7.30000019
    466,         16.5,   7.30000019
    467,   16.6000004,   7.30000019
    468,   16.7000008,   7.30000019
    469,   16.7999992,   7.30000019
    470,   16.8999996,   7.30000019
    471,          17.,   7.30000019
    472,   17.1000004,   7.30000019
    473,   17.2000008,   7.30000019
    474,   17.2999992,   7.30000019
    475,   17.3999996,   7.30000019
    476,         17.5,   7.30000019
    477,   17.6000004,   7.30000019
    478,   17.7000008,   7.30000019
    479,   17.7999992,   7.30000019
    480,   17.8999996,   7.30000019
    481,          18.,   7.30000019
    482,   18.1000004,   7.30000019
    483,   18.2000008,   7.30000019
    484,   18.2999992,   7.30000019
    485,   18.3999996,   7.30000019
    486,         18.5,   7.30000019
    487,   18.6000004,   7.30000019
    488,   18.7000008,   7.30000019
    489,   18.7999992,   7.30000019
    490,   18.8999996,   7.30000019
    491,          19.,   7.30000019
    492,   19.1000004,   7.30000019
    493,   19.2000008,   7.30000019
    494,   19.2999992,   7.30000019
    495,   19.3999996,   7.30000019
    496,         19.5,   7.30000019
    497,   19.6000004,   7.30000019
    498,   19.7000008,   7.30000019
    499,   19.7999992,   7.30000019
    500,   19.8999996,   7.30000019
    501,          20.,   7.30000019
    502,         -30.,    7.4000001
    503,  -29.8999996,    7.4000001
    504,  -29.7999992,    7.4000001
    505,  -29.7000008,    7.4000001
    506,  -29.6000004,    7.4000001
    507,        -29.5,    7.4000001
    508,  -29.3999996,    7.4000001
    509,  -29.2999992,    7.4000001
    510,  -29.2000008,    7.4000001
    511,  -29.1000004,    7.4000001
    512,         -29.,    7.4000001
    513,  -28.8999996,    7.4000001
    514,  -28.7999992,    7.4000001
    515,  -28.7000008,    7.4000001
    516,  -28.6000004,    7.4000001
    517,        -28.5,    7.4000001
    518,  -28.3999996,    7.4000001
    519,  -28.2999992,    7.4000001
    520,  -28.2000008,    7.4000001
    521,  -28.1000004,    7.4000001
    522,         -28.,    7.4000001
    523,  -27.8999996,    7.4000001
    524,  -27.7999992,    7.4000001
    525,  -27.7000008,    7.4000001
    526,  -27.6000004,    7.4000001
    527,        -27.5,    7.4000001
    528,  -27.3999996,    7.4000001
    529,  -27.2999992,    7.4000001
    530,  -27.2000008,    7.4000001
    531,  -27.1000004,    7.4000001
    532,         -27.,    7.4000001
    533,  -26.8999996,    7.4000001
    534,  -26.7999992,    7.4000001
    535,  -26.7000008,    7.4000001
    536,  -26.6000004,    7.4000001
    537,        -26.5,    7.4000001
    538,  -26.3999996,    7.4000001
    539,  -26.2999992,    7.4000001
    540,  -26.2000008,    7.4000001
    541,  -26.1000004,    7.4000001
    542,         -26.,    7.4000001
    543,  -25.8999996,    7.4000001
    544,  -25.7999992,    7.4000001
    545,  -25.7000008,    7.4000001
    546,  -25.6000004,    7.4000001
    547,        -25.5,    7.4000001
    548,  -25.3999996,    7.4000001
    549,  -25.2999992,    7.4000001
    550,  -25.2000008,    7.4000001
    551,  -25.1000004,    7.4000001
    552,         -25.,    7.4000001
    553,  -24.8999996,    7.4000001
    554,  -24.7999992,    7.4000001
    555,  -24.7000008,    7.4000001
    556,  -24.6000004,    7.4000001
    557,        -24.5,    7.4000001
    558,  -24.3999996,    7.4000001
    559,  -24.2999992,    7.4000001
    560,  -24.2000008,    7.4000001
    561,  -24.1000004,    7.4000001
    562,         -24.,    7.4000001
    563,  -23.8999996,    7.4000001
    564,  -23.7999992,    7.4000001
    565,  -23.7000008,    7.4000001
    566,  -23.6000004,    7.4000001
    567,        -23.5,    7.4000001
    568,  -23.3999996,    7.4000001
    569,  -23.2999992,    7.4000001
    570,  -23.2000008,    7.4000001
    571,  -23.1000004,    7.4000001
    572,         -23.,    7.4000001
    573,  -22.8999996,    7.4000001
    574,  -22.7999992,    7.4000001
    575,  -22.7000008,    7.4000001
    576,  -22.6000004,    7.4000001
    577,        -22.5,    7.4000001
    578,  -22.3999996,    7.4000001
    579,  -22.2999992,    7.4000001
    580,  -22.2000008,    7.4000001
    581,  -22.1000004,    7.4000001
    582,         -22.,    7.4000001
    583,  -21.8999996,    7.4000001
    584,  -21.7999992,    7.4000001
    585,  -21.7000008,    7.4000001
    586,  -21.6000004,    7.4000001
    587,        -21.5,    7.4000001
    588,  -21.3999996,    7.4000001
    589,  -21.2999992,    7.4000001
    590,  -21.2000008,    7.4000001
    591,  -21.1000004,    7.4000001
    592,         -21.,    7.4000001
    593,  -20.8999996,    7.4000001
    594,  -20.7999992,    7.4000001
    595,  -20.7000008,    7.4000001
    596,  -20.6000004,    7.4000001
    597,        -20.5,    7.4000001
    598,  -20.3999996,    7.4000001
    599,  -20.2999992,    7.4000001
    600,  -20.2000008,    7.4000001
    601,  -20.1000004,    7.4000001
    602,         -20.,    7.4000001
    603,  -19.8999996,    7.4000001
    604,  -19.7999992,    7.4000001
    605,  -19.7000008,    7.4000001
    606,  -19.6000004,    7.4000001
    607,        -19.5,    7.4000001
    608,  -19.3999996,    7.4000001
    609,  -19.2999992,    7.4000001
    610,  -19.2000008,    7.4000001
    611,  -19.1000004,    7.4000001
    612,         -19.,    7.4000001
    613,  -18.8999996,    7.4000001
    614,  -18.7999992,    7.4000001
    615,  -18.7000008,    7.4000001
    616,  -18.6000004,    7.4000001
    617,        -18.5,    7.4000001
    618,  -18.3999996,    7.4000001
    619,  -18.2999992,    7.4000001
    620,  -18.2000008,    7.4000001
    621,  -18.1000004,    7.4000001
    622,         -18.,    7.4000001
    623,  -17.8999996,    7.4000001
    624,  -17.7999992,    7.4000001
    625,  -17.7000008,    7.4000001
    626,  -17.6000004,    7.4000001
    627,        -17.5,    7.4000001
    628,  -17.3999996,    7.4000001
    629,  -17.2999992,    7.4000001
    630,  -17.2000008,    7.4000001
    631,  -17.1000004,    7.4000001
    632,         -17.,    7.4000001
    633,  -16.8999996,    7.4000001
    634,  -16.7999992,    7.4000001
    635,  -16.7000008,    7.4000001
    636,  -16.6000004,    7.4000001
    637,        -16.5,    7.4000001
    638,  -16.3999996,    7.4000001
    639,  -16.2999992,    7.4000001
    640,  -16.2000008,    7.4000001
    641,  -16.1000004,    7.4000001
    642,         -16.,    7.4000001
    643,  -15.8999996,    7.4000001
    644,  -15.8000002,    7.4000001
    645,  -15.6999998,    7.4000001
    646,  -15.6000004,    7.4000001
    647,        -15.5,    7.4000001
    648,  -15.3999996,    7.4000001
    649,  -15.3000002,    7.4000001
    650,  -15.1999998,    7.4000001
    651,  -15.1000004,    7.4000001
    652,         -15.,    7.4000001
    653,  -14.8999996,    7.4000001
    654,  -14.8000002,    7.4000001
    655,  -14.6999998,    7.4000001
    656,  -14.6000004,    7.4000001
    657,        -14.5,    7.4000001
    658,  -14.3999996,    7.4000001
    659,  -14.3000002,    7.4000001
    660,  -14.1999998,    7.4000001
    661,  -14.1000004,    7.4000001
    662,         -14.,    7.4000001
    663,  -13.8999996,    7.4000001
    664,  -13.8000002,    7.4000001
    665,  -13.6999998,    7.4000001
    666,  -13.6000004,    7.4000001
    667,        -13.5,    7.4000001
    668,  -13.3999996,    7.4000001
    669,  -13.3000002,    7.4000001
    670,  -13.1999998,    7.4000001
    671,  -13.1000004,    7.4000001
    672,         -13.,    7.4000001
    673,  -12.8999996,    7.4000001
    674,  -12.8000002,    7.4000001
    675,  -12.6999998,    7.4000001
    676,  -12.6000004,    7.4000001
    677,        -12.5,    7.4000001
    678,  -12.3999996,    7.4000001
    679,  -12.3000002,    7.4000001
    680,  -12.1999998,    7.4000001
    681,  -12.1000004,    7.4000001
    682,         -12.,    7.4000001
    683,  -11.8999996,    7.4000001
    684,  -11.8000002,    7.4000001
    685,  -11.6999998,    7.4000001
    686,  -11.6000004,    7.4000001
    687,        -11.5,    7.4000001
    688,  -11.3999996,    7.4000001
    689,  -11.3000002,    7.4000001
    690,  -11.1999998,    7.4000001
    691,  -11.1000004,    7.4000001
    692,         -11.,    7.4000001
    693,  -10.8999996,    7.4000001
    694,  -10.8000002,    7.4000001
    695,  -10.6999998,    7.4000001
    696,  -10.6000004,    7.4000001
    697,        -10.5,    7.4000001
    698,  -10.3999996,    7.4000001
    699,  -10.3000002,    7.4000001
    700,  -10.1999998,    7.4000001
    701,  -10.1000004,    7.4000001
    702,         -10.,    7.4000001
    703,  -9.89999962,    7.4000001
    704,  -9.80000019,    7.4000001
    705,  -9.69999981,    7.4000001
    706,  -9.60000038,    7.4000001
    707,         -9.5,    7.4000001
    708,  -9.39999962,    7.4000001
    709,  -9.30000019,    7.4000001
    710,  -9.19999981,    7.4000001
    711,  -9.10000038,    7.4000001
    712,          -9.,    7.4000001
    713,  -8.89999962,    7.4000001
    714,  -8.80000019,    7.4000001
    715,  -8.69999981,    7.4000001
    716,  -8.60000038,    7.4000001
    717,         -8.5,    7.4000001
    718,  -8.39999962,    7.4000001
    719,  -8.30000019,    7.4000001
    720,  -8.19999981,    7.4000001
    721,  -8.10000038,    7.4000001
    722,          -8.,    7.4000001
    723,   -7.9000001,    7.4000001
    724,  -7.80000019,    7.4000001
    725,  -7.69999981,    7.4000001
    726,   -7.5999999,    7.4000001
    727,         -7.5,    7.4000001
    728,   -7.4000001,    7.4000001
    729,  -7.30000019,    7.4000001
    730,  -7.19999981,    7.4000001
    731,   -7.0999999,    7.4000001
    732,          -7.,    7.4000001
    733,   -6.9000001,    7.4000001
    734,  -6.80000019,    7.4000001
    735,  -6.69999981,    7.4000001
    736,   -6.5999999,    7.4000001
    737,         -6.5,    7.4000001
    738,   -6.4000001,    7.4000001
    739,  -6.30000019,    7.4000001
    740,  -6.19999981,    7.4000001
    741,   -6.0999999,    7.4000001
    742,          -6.,    7.4000001
    743,   -5.9000001,    7.4000001
    744,  -5.80000019,    7.4000001
    745,  -5.69999981,    7.4000001
    746,   -5.5999999,    7.4000001
    747,         -5.5,    7.4000001
    748,   -5.4000001,    7.4000001
    749,  -5.30000019,    7.4000001
    750,  -5.19999981,    7.4000001
    751,   -5.0999999,    7.4000001
    752,          -5.,    7.4000001
    753,   -4.9000001,    7.4000001
    754,  -4.80000019,    7.4000001
    755,  -4.69999981,    7.4000001
    756,   -4.5999999,    7.4000001
    757,         -4.5,    7.4000001
    758,   -4.4000001,    7.4000001
    759,  -4.30000019,    7.4000001
    760,  -4.19999981,    7.4000001
    761,   -4.0999999,    7.4000001
    762,          -4.,    7.4000001
    763,   -3.9000001,    7.4000001
    764,  -3.79999995,    7.4000001
    765,  -3.70000005,    7.4000001
    766,   -3.5999999,    7.4000001
    767,         -3.5,    7.4000001
    768,   -3.4000001,    7.4000001
    769,  -3.29999995,    7.4000001
    770,  -3.20000005,    7.4000001
    771,   -3.0999999,    7.4000001
    772,          -3.,    7.4000001
    773,   -2.9000001,    7.4000001
    774,  -2.79999995,    7.4000001
    775,  -2.70000005,    7.4000001
    776,   -2.5999999,    7.4000001
    777,         -2.5,    7.4000001
    778,   -2.4000001,    7.4000001
    779,  -2.29999995,    7.4000001
    780,  -2.20000005,    7.4000001
    781,   -2.0999999,    7.4000001
    782,          -2.,    7.4000001
    783,  -1.89999998,    7.4000001
    784,  -1.79999995,    7.4000001
    785,  -1.70000005,    7.4000001
    786,  -1.60000002,    7.4000001
    787,         -1.5,    7.4000001
    788,  -1.39999998,    7.4000001
    789,  -1.29999995,    7.4000001
    790,  -1.20000005,    7.4000001
    791,  -1.10000002,    7.4000001
    792,          -1.,    7.4000001
    793, -0.899999976,    7.4000001
    794, -0.800000012,    7.4000001
    795, -0.699999988,    7.4000001
    796, -0.600000024,    7.4000001
    797,         -0.5,    7.4000001
    798, -0.400000006,    7.4000001
    799, -0.300000012,    7.4000001
    800, -0.200000003,    7.4000001
    801, -0.100000001,    7.4000001
    802,           0.,    7.4000001
    803,  0.100000001,    7.4000001
    804,  0.200000003,    7.4000001
    805,  0.300000012,    7.4000001
    806,  0.400000006,    7.4000001
    807,          0.5,    7.4000001
    808,  0.600000024,    7.4000001
    809,  0.699999988,    7.4000001
    810,  0.800000012,    7.4000001
    811,  0.899999976,    7.4000001
    812,           1.,    7.4000001
    813,   1.10000002,    7.4000001
    814,   1.20000005,    7.4000001
    815,   1.29999995,    7.4000001
    816,   1.39999998,    7.4000001
    817,          1.5,    7.4000001
    818,   1.60000002,    7.4000001
    819,   1.70000005,    7.4000001
    820,   1.79999995,    7.4000001
    821,   1.89999998,    7.4000001
    822,           2.,    7.4000001
    823,    2.0999999,    7.4000001
    824,   2.20000005,    7.4000001
    825,   2.29999995,    7.4000001
    826,    2.4000001,    7.4000001
    827,          2.5,    7.4000001
    828,    2.5999999,    7.4000001
    829,   2.70000005,    7.4000001
    830,   2.79999995,    7.4000001
    831,    2.9000001,    7.4000001
    832,           3.,    7.4000001
    833,    3.0999999,    7.4000001
    834,   3.20000005,    7.4000001
    835,   3.29999995,    7.4000001
    836,    3.4000001,    7.4000001
    837,          3.5,    7.4000001
    838,    3.5999999,    7.4000001
    839,   3.70000005,    7.4000001
    840,   3.79999995,    7.4000001
    841,    3.9000001,    7.4000001
    842,           4.,    7.4000001
    843,    4.0999999,    7.4000001
    844,   4.19999981,    7.4000001
    845,   4.30000019,    7.4000001
    846,    4.4000001,    7.4000001
    847,          4.5,    7.4000001
    848,    4.5999999,    7.4000001
    849,   4.69999981,    7.4000001
    850,   4.80000019,    7.4000001
    851,    4.9000001,    7.4000001
    852,           5.,    7.4000001
    853,    5.0999999,    7.4000001
    854,   5.19999981,    7.4000001
    855,   5.30000019,    7.4000001
    856,    5.4000001,    7.4000001
    857,          5.5,    7.4000001
    858,    5.5999999,    7.4000001
    859,   5.69999981,    7.4000001
    860,   5.80000019,    7.4000001
    861,    5.9000001,    7.4000001
    862,           6.,    7.4000001
    863,    6.0999999,    7.4000001
    864,   6.19999981,    7.4000001
    865,   6.30000019,    7.4000001
    866,    6.4000001,    7.4000001
    867,          6.5,    7.4000001
    868,    6.5999999,    7.4000001
    869,   6.69999981,    7.4000001
    870,   6.80000019,    7.4000001
    871,    6.9000001,    7.4000001
    872,           7.,    7.4000001
    873,    7.0999999,    7.4000001
    874,   7.19999981,    7.4000001
    875,   7.30000019,    7.4000001
    876,    7.4000001,    7.4000001
    877,          7.5,    7.4000001
    878,    7.5999999,    7.4000001
    879,   7.69999981,    7.4000001
    880,   7.80000019,    7.4000001
    881,    7.9000001,    7.4000001
    882,           8.,    7.4000001
    883,   8.10000038,    7.4000001
    884,   8.19999981,    7.4000001
    885,   8.30000019,    7.4000001
    886,   8.39999962,    7.4000001
    887,          8.5,    7.4000001
    888,   8.60000038,    7.4000001
    889,   8.69999981,    7.4000001
    890,   8.80000019,    7.4000001
    891,   8.89999962,    7.4000001
    892,           9.,    7.4000001
    893,   9.10000038,    7.4000001
    894,   9.19999981,    7.4000001
    895,   9.30000019,    7.4000001
    896,   9.39999962,    7.4000001
    897,          9.5,    7.4000001
    898,   9.60000038,    7.4000001
    899,   9.69999981,    7.4000001
    900,   9.80000019,    7.4000001
    901,   9.89999962,    7.4000001
    902,          10.,    7.4000001
    903,   10.1000004,    7.4000001
    904,   10.1999998,    7.4000001
    905,   10.3000002,    7.4000001
    906,   10.3999996,    7.4000001
    907,         10.5,    7.4000001
    908,   10.6000004,    7.4000001
    909,   10.6999998,    7.4000001
    910,   10.8000002,    7.4000001
    911,   10.8999996,    7.4000001
    912,          11.,    7.4000001
    913,   11.1000004,    7.4000001
    914,   11.1999998,    7.4000001
    915,   11.3000002,    7.4000001
    916,   11.3999996,    7.4000001
    917,         11.5,    7.4000001
    918,   11.6000004,    7.4000001
    919,   11.6999998,    7.4000001
    920,   11.8000002,    7.4000001
    921,   11.8999996,    7.4000001
    922,          12.,    7.4000001
    923,   12.1000004,    7.4000001
    924,   12.1999998,    7.4000001
    925,   12.3000002,    7.4000001
    926,   12.3999996,    7.4000001
    927,         12.5,    7.4000001
    928,   12.6000004,    7.4000001
    929,   12.6999998,    7.4000001
    930,   12.8000002,    7.4000001
    931,   12.8999996,    7.4000001
    932,          13.,    7.4000001
    933,   13.1000004,    7.4000001
    934,   13.1999998,    7.4000001
    935,   13.3000002,    7.4000001
    936,   13.3999996,    7.4000001
    937,         13.5,    7.4000001
    938,   13.6000004,    7.4000001
    939,   13.6999998,    7.4000001
    940,   13.8000002,    7.4000001
    941,   13.8999996,    7.4000001
    942,          14.,    7.4000001
    943,   14.1000004,    7.4000001
    944,   14.1999998,    7.4000001
    945,   14.3000002,    7.4000001
    946,   14.3999996,    7.4000001
    947,         14.5,    7.4000001
    948,   14.6000004,    7.4000001
    949,   14.6999998,    7.4000001
    950,   14.8000002,    7.4000001
    951,   14.8999996,    7.4000001
    952,          15.,    7.4000001
    953,   15.1000004,    7.4000001
    954,   15.1999998,    7.4000001
    955,   15.3000002,    7.4000001
    956,   15.3999996,    7.4000001
    957,         15.5,    7.4000001
    958,   15.6000004,    7.4000001
    959,   15.6999998,    7.4000001
    960,   15.8000002,    7.4000001
    961,   15.8999996,    7.4000001
    962,          16.,    7.4000001
    963,   16.1000004,    7.4000001
    964,   16.2000008,    7.4000001
    965,   16.2999992,    7.4000001
    966,   16.3999996,    7.4000001
    967,         16.5,    7.4000001
    968,   16.6000004,    7.4000001
    969,   16.7000008,    7.4000001
    970,   16.7999992,    7.4000001
    971,   16.8999996,    7.4000001
    972,          17.,    7.4000001
    973,   17.1000004,    7.4000001
    974,   17.2000008,    7.4000001
    975,   17.2999992,    7.4000001
    976,   17.3999996,    7.4000001
    977,         17.5,    7.4000001
    978,   17.6000004,    7.4000001
    979,   17.7000008,    7.4000001
    980,   17.7999992,    7.4000001
    981,   17.8999996,    7.4000001
    982,          18.,    7.4000001
    983,   18.1000004,    7.4000001
    984,   18.2000008,    7.4000001
    985,   18.2999992,    7.4000001
    986,   18.3999996,    7.4000001
    987,         18.5,    7.4000001
    988,   18.6000004,    7.4000001
    989,   18.7000008,    7.4000001
    990,   18.7999992,    7.4000001
    991,   18.8999996,    7.4000001
    992,          19.,    7.4000001
    993,   19.1000004,    7.4000001
    994,   19.2000008,    7.4000001
    995,   19.2999992,    7.4000001
    996,   19.3999996,    7.4000001
    997,         19.5,    7.4000001
    998,   19.6000004,    7.4000001
    999,   19.7000008,    7.4000001
   1000,   19.7999992,    7.4000001
   1001,   19.8999996,    7.4000001
   1002,          20.,    7.4000001
   1003,         -30.,          7.5
   1004,  -29.8999996,          7.5
   1005,  -29.7999992,          7.5
   1006,  -29.7000008,          7.5
   1007,  -29.6000004,          7.5
   1008,        -29.5,          7.5
   1009,  -29.3999996,          7.5
   1010,  -29.2999992,          7.5
   1011,  -29.2000008,          7.5
   1012,  -29.1000004,          7.5
   1013,         -29.,          7.5
   1014,  -28.8999996,          7.5
   1015,  -28.7999992,          7.5
   1016,  -28.7000008,          7.5
   1017,  -28.6000004,          7.5
   1018,        -28.5,          7.5
   1019,  -28.3999996,          7.5
   1020,  -28.2999992,          7.5
   1021,  -28.2000008,          7.5
   1022,  -28.1000004,          7.5
   1023,         -28.,          7.5
   1024,  -27.8999996,          7.5
   1025,  -27.7999992,          7.5
   1026,  -27.7000008,          7.5
   1027,  -27.6000004,          7.5
   1028,        -27.5,          7.5
   1029,  -27.3999996,          7.5
   1030,  -27.2999992,          7.5
   1031,  -27.2000008,          7.5
   1032,  -27.1000004,          7.5
   1033,         -27.,          7.5
   1034,  -26.8999996,          7.5
   1035,  -26.7999992,          7.5
   1036,  -26.7000008,          7.5
   1037,  -26.6000004,          7.5
   1038,        -26.5,          7.5
   1039,  -26.3999996,          7.5
   1040,  -26.2999992,          7.5
   1041,  -26.2000008,          7.5
   1042,  -26.1000004,          7.5
   1043,         -26.,          7.5
   1044,  -25.8999996,          7.5
   1045,  -25.7999992,          7.5
   1046,  -25.7000008,          7.5
   1047,  -25.6000004,          7.5
   1048,        -25.5,          7.5
   1049,  -25.3999996,          7.5
   1050,  -25.2999992,          7.5
   1051,  -25.2000008,          7.5
   1052,  -25.1000004,          7.5
   1053,         -25.,          7.5
   1054,  -24.8999996,          7.5
   1055,  -24.7999992,          7.5
   1056,  -24.7000008,          7.5
   1057,  -24.6000004,          7.5
   1058,        -24.5,          7.5
   1059,  -24.3999996,          7.5
   1060,  -24.2999992,          7.5
   1061,  -24.2000008,          7.5
   1062,  -24.1000004,          7.5
   1063,         -24.,          7.5
   1064,  -23.8999996,          7.5
   1065,  -23.7999992,          7.5
   1066,  -23.7000008,          7.5
   1067,  -23.6000004,          7.5
   1068,        -23.5,          7.5
   1069,  -23.3999996,          7.5
   1070,  -23.2999992,          7.5
   1071,  -23.2000008,          7.5
   1072,  -23.1000004,          7.5
   1073,         -23.,          7.5
   1074,  -22.8999996,          7.5
   1075,  -22.7999992,          7.5
   1076,  -22.7000008,          7.5
   1077,  -22.6000004,          7.5
   1078,        -22.5,          7.5
   1079,  -22.3999996,          7.5
   1080,  -22.2999992,          7.5
   1081,  -22.2000008,          7.5
   1082,  -22.1000004,          7.5
   1083,         -22.,          7.5
   1084,  -21.8999996,          7.5
   1085,  -21.7999992,          7.5
   1086,  -21.7000008,          7.5
   1087,  -21.6000004,          7.5
   1088,        -21.5,          7.5
   1089,  -21.3999996,          7.5
   1090,  -21.2999992,          7.5
   1091,  -21.2000008,          7.5
   1092,  -21.1000004,          7.5
   1093,         -21.,          7.5
   1094,  -20.8999996,          7.5
   1095,  -20.7999992,          7.5
   1096,  -20.7000008,          7.5
   1097,  -20.6000004,          7.5
   1098,        -20.5,          7.5
   1099,  -20.3999996,          7.5
   1100,  -20.2999992,          7.5
   1101,  -20.2000008,          7.5
   1102,  -20.1000004,          7.5
   1103,         -20.,          7.5
   1104,  -19.8999996,          7.5
   1105,  -19.7999992,          7.5
   1106,  -19.7000008,          7.5
   1107,  -19.6000004,          7.5
   1108,        -19.5,          7.5
   1109,  -19.3999996,          7.5
   1110,  -19.2999992,          7.5
   1111,  -19.2000008,          7.5
   1112,  -19.1000004,          7.5
   1113,         -19.,          7.5
   1114,  -18.8999996,          7.5
   1115,  -18.7999992,          7.5
   1116,  -18.7000008,          7.5
   1117,  -18.6000004,          7.5
   1118,        -18.5,          7.5
   1119,  -18.3999996,          7.5
   1120,  -18.2999992,          7.5
   1121,  -18.2000008,          7.5
   1122,  -18.1000004,          7.5
   1123,         -18.,          7.5
   1124,  -17.8999996,          7.5
   1125,  -17.7999992,          7.5
   1126,  -17.7000008,          7.5
   1127,  -17.6000004,          7.5
   1128,        -17.5,          7.5
   1129,  -17.3999996,          7.5
   1130,  -17.2999992,          7.5
   1131,  -17.2000008,          7.5
   1132,  -17.1000004,          7.5
   1133,         -17.,          7.5
   1134,  -16.8999996,          7.5
   1135,  -16.7999992,          7.5
   1136,  -16.7000008,          7.5
   1137,  -16.6000004,          7.5
   1138,        -16.5,          7.5
   1139,  -16.3999996,          7.5
   1140,  -16.2999992,          7.5
   1141,  -16.2000008,          7.5
   1142,  -16.1000004,          7.5
   1143,         -16.,          7.5
   1144,  -15.8999996,          7.5
   1145,  -15.8000002,          7.5
   1146,  -15.6999998,          7.5
   1147,  -15.6000004,          7.5
   1148,        -15.5,          7.5
   1149,  -15.3999996,          7.5
   1150,  -15.3000002,          7.5
   1151,  -15.1999998,          7.5
   1152,  -15.1000004,          7.5
   1153,         -15.,          7.5
   1154,  -14.8999996,          7.5
   1155,  -14.8000002,          7.5
   1156,  -14.6999998,          7.5
   1157,  -14.6000004,          7.5
   1158,        -14.5,          7.5
   1159,  -14.3999996,          7.5
   1160,  -14.3000002,          7.5
   1161,  -14.1999998,          7.5
   1162,  -14.1000004,          7.5
   1163,         -14.,          7.5
   1164,  -13.8999996,          7.5
   1165,  -13.8000002,          7.5
   1166,  -13.6999998,          7.5
   1167,  -13.6000004,          7.5
   1168,        -13.5,          7.5
   1169,  -13.3999996,          7.5
   1170,  -13.3000002,          7.5
   1171,  -13.1999998,          7.5
   1172,  -13.1000004,          7.5
   1173,         -13.,          7.5
   1174,  -12.8999996,          7.5
   1175,  -12.8000002,          7.5
   1176,  -12.6999998,          7.5
   1177,  -12.6000004,          7.5
   1178,        -12.5,          7.5
   1179,  -12.3999996,          7.5
   1180,  -12.3000002,          7.5
   1181,  -12.1999998,          7.5
   1182,  -12.1000004,          7.5
   1183,         -12.,          7.5
   1184,  -11.8999996,          7.5
   1185,  -11.8000002,          7.5
   1186,  -11.6999998,          7.5
   1187,  -11.6000004,          7.5
   1188,        -11.5,          7.5
   1189,  -11.3999996,          7.5
   1190,  -11.3000002,          7.5
   1191,  -11.1999998,          7.5
   1192,  -11.1000004,          7.5
   1193,         -11.,          7.5
   1194,  -10.8999996,          7.5
   1195,  -10.8000002,          7.5
   1196,  -10.6999998,          7.5
   1197,  -10.6000004,          7.5
   1198,        -10.5,          7.5
   1199,  -10.3999996,          7.5
   1200,  -10.3000002,          7.5
   1201,  -10.1999998,          7.5
   1202,  -10.1000004,          7.5
   1203,         -10.,          7.5
   1204,  -9.89999962,          7.5
   1205,  -9.80000019,          7.5
   1206,  -9.69999981,          7.5
   1207,  -9.60000038,          7.5
   1208,         -9.5,          7.5
   1209,  -9.39999962,          7.5
   1210,  -9.30000019,          7.5
   1211,  -9.19999981,          7.5
   1212,  -9.10000038,          7.5
   1213,          -9.,          7.5
   1214,  -8.89999962,          7.5
   1215,  -8.80000019,          7.5
   1216,  -8.69999981,          7.5
   1217,  -8.60000038,          7.5
   1218,         -8.5,          7.5
   1219,  -8.39999962,          7.5
   1220,  -8.30000019,          7.5
   1221,  -8.19999981,          7.5
   1222,  -8.10000038,          7.5
   1223,          -8.,          7.5
   1224,   -7.9000001,          7.5
   1225,  -7.80000019,          7.5
   1226,  -7.69999981,          7.5
   1227,   -7.5999999,          7.5
   1228,         -7.5,          7.5
   1229,   -7.4000001,          7.5
   1230,  -7.30000019,          7.5
   1231,  -7.19999981,          7.5
   1232,   -7.0999999,          7.5
   1233,          -7.,          7.5
   1234,   -6.9000001,          7.5
   1235,  -6.80000019,          7.5
   1236,  -6.69999981,          7.5
   1237,   -6.5999999,          7.5
   1238,         -6.5,          7.5
   1239,   -6.4000001,          7.5
   1240,  -6.30000019,          7.5
   1241,  -6.19999981,          7.5
   1242,   -6.0999999,          7.5
   1243,          -6.,          7.5
   1244,   -5.9000001,          7.5
   1245,  -5.80000019,          7.5
   1246,  -5.69999981,          7.5
   1247,   -5.5999999,          7.5
   1248,         -5.5,          7.5
   1249,   -5.4000001,          7.5
   1250,  -5.30000019,          7.5
   1251,  -5.19999981,          7.5
   1252,   -5.0999999,          7.5
   1253,          -5.,          7.5
   1254,   -4.9000001,          7.5
   1255,  -4.80000019,          7.5
   1256,  -4.69999981,          7.5
   1257,   -4.5999999,          7.5
   1258,         -4.5,          7.5
   1259,   -4.4000001,          7.5
   1260,  -4.30000019,          7.5
   1261,  -4.19999981,          7.5
   1262,   -4.0999999,          7.5
   1263,          -4.,          7.5
   1264,   -3.9000001,          7.5
   1265,  -3.79999995,          7.5
   1266,  -3.70000005,          7.5
   1267,   -3.5999999,          7.5
   1268,         -3.5,          7.5
   1269,   -3.4000001,          7.5
   1270,  -3.29999995,          7.5
   1271,  -3.20000005,          7.5
   1272,   -3.0999999,          7.5
   1273,          -3.,          7.5
   1274,   -2.9000001,          7.5
   1275,  -2.79999995,          7.5
   1276,  -2.70000005,          7.5
   1277,   -2.5999999,          7.5
   1278,         -2.5,          7.5
   1279,   -2.4000001,          7.5
   1280,  -2.29999995,          7.5
   1281,  -2.20000005,          7.5
   1282,   -2.0999999,          7.5
   1283,          -2.,          7.5
   1284,  -1.89999998,          7.5
   1285,  -1.79999995,          7.5
   1286,  -1.70000005,          7.5
   1287,  -1.60000002,          7.5
   1288,         -1.5,          7.5
   1289,  -1.39999998,          7.5
   1290,  -1.29999995,          7.5
   1291,  -1.20000005,          7.5
   1292,  -1.10000002,          7.5
   1293,          -1.,          7.5
   1294, -0.899999976,          7.5
   1295, -0.800000012,          7.5
   1296, -0.699999988,          7.5
   1297, -0.600000024,          7.5
   1298,         -0.5,          7.5
   1299, -0.400000006,          7.5
   1300, -0.300000012,          7.5
   1301, -0.200000003,          7.5
   1302, -0.100000001,          7.5
   1303,           0.,          7.5
   1304,  0.100000001,          7.5
   1305,  0.200000003,          7.5
   1306,  0.300000012,          7.5
   1307,  0.400000006,          7.5
   1308,          0.5,          7.5
   1309,  0.600000024,          7.5
   1310,  0.699999988,          7.5
   1311,  0.800000012,          7.5
   1312,  0.899999976,          7.5
   1313,           1.,          7.5
   1314,   1.10000002,          7.5
   1315,   1.20000005,          7.5
   1316,   1.29999995,          7.5
   1317,   1.39999998,          7.5
   1318,          1.5,          7.5
   1319,   1.60000002,          7.5
   1320,   1.70000005,          7.5
   1321,   1.79999995,          7.5
   1322,   1.89999998,          7.5
   1323,           2.,          7.5
   1324,    2.0999999,          7.5
   1325,   2.20000005,          7.5
   1326,   2.29999995,          7.5
   1327,    2.4000001,          7.5
   1328,          2.5,          7.5
   1329,    2.5999999,          7.5
   1330,   2.70000005,          7.5
   1331,   2.79999995,          7.5
   1332,    2.9000001,          7.5
   1333,           3.,          7.5
   1334,    3.0999999,          7.5
   1335,   3.20000005,          7.5
   1336,   3.29999995,          7.5
   1337,    3.4000001,          7.5
   1338,          3.5,          7.5
   1339,    3.5999999,          7.5
   1340,   3.70000005,          7.5
   1341,   3.79999995,          7.5
   1342,    3.9000001,          7.5
   1343,           4.,          7.5
   1344,    4.0999999,          7.5
   1345,   4.19999981,          7.5
   1346,   4.30000019,          7.5
   1347,    4.4000001,          7.5
   1348,          4.5,          7.5
   1349,    4.5999999,          7.5
   1350,   4.69999981,          7.5
   1351,   4.80000019,          7.5
   1352,    4.9000001,          7.5
   1353,           5.,          7.5
   1354,    5.0999999,          7.5
   1355,   5.19999981,          7.5
   1356,   5.30000019,          7.5
   1357,    5.4000001,          7.5
   1358,          5.5,          7.5
   1359,    5.5999999,          7.5
   1360,   5.69999981,          7.5
   1361,   5.80000019,          7.5
   1362,    5.9000001,          7.5
   1363,           6.,          7.5
   1364,    6.0999999,          7.5
   1365,   6.19999981,          7.5
   1366,   6.30000019,          7.5
   1367,    6.4000001,          7.5
   1368,          6.5,          7.5
   1369,    6.5999999,          7.5
   1370,   6.69999981,          7.5
   1371,   6.80000019,          7.5
   1372,    6.9000001,          7.5
   1373,           7.,          7.5
   1374,    7.0999999,          7.5
   1375,   7.19999981,          7.5
   1376,   7.30000019,          7.5
   1377,    7.4000001,          7.5
   1378,          7.5,          7.5
   1379,    7.5999999,          7.5
   1380,   7.69999981,          7.5
   1381,   7.80000019,          7.5
   1382,    7.9000001,          7.5
   1383,           8.,          7.5
   1384,   8.10000038,          7.5
   1385,   8.19999981,          7.5
   1386,   8.30000019,          7.5
   1387,   8.39999962,          7.5
   1388,          8.5,          7.5
   1389,   8.60000038,          7.5
   1390,   8.69999981,          7.5
   1391,   8.80000019,          7.5
   1392,   8.89999962,          7.5
   1393,           9.,          7.5
   1394,   9.10000038,          7.5
   1395,   9.19999981,          7.5
   1396,   9.30000019,          7.5
   1397,   9.39999962,          7.5
   1398,          9.5,          7.5
   1399,   9.60000038,          7.5
   1400,   9.69999981,          7.5
   1401,   9.80000019,          7.5
   1402,   9.89999962,          7.5
   1403,          10.,          7.5
   1404,   10.1000004,          7.5
   1405,   10.1999998,          7.5
   1406,   10.3000002,          7.5
   1407,   10.3999996,          7.5
   1408,         10.5,          7.5
   1409,   10.6000004,          7.5
   1410,   10.6999998,          7.5
   1411,   10.8000002,          7.5
   1412,   10.8999996,          7.5
   1413,          11.,          7.5
   1414,   11.1000004,          7.5
   1415,   11.1999998,          7.5
   1416,   11.3000002,          7.5
   1417,   11.3999996,          7.5
   1418,         11.5,          7.5
   1419,   11.6000004,          7.5
   1420,   11.6999998,          7.5
   1421,   11.8000002,          7.5
   1422,   11.8999996,          7.5
   1423,          12.,          7.5
   1424,   12.1000004,          7.5
   1425,   12.1999998,          7.5
   1426,   12.3000002,          7.5
   1427,   12.3999996,          7.5
   1428,         12.5,          7.5
   1429,   12.6000004,          7.5
   1430,   12.6999998,          7.5
   1431,   12.8000002,          7.5
   1432,   12.8999996,          7.5
   1433,          13.,          7.5
   1434,   13.1000004,          7.5
   1435,   13.1999998,          7.5
   1436,   13.3000002,          7.5
   1437,   13.3999996,          7.5
   1438,         13.5,          7.5
   1439,   13.6000004,          7.5
   1440,   13.6999998,          7.5
   1441,   13.8000002,          7.5
   1442,   13.8999996,          7.5
   1443,          14.,          7.5
   1444,   14.1000004,          7.5
   1445,   14.1999998,          7.5
   1446,   14.3000002,          7.5
   1447,   14.3999996,          7.5
   1448,         14.5,          7.5
   1449,   14.6000004,          7.5
   1450,   14.6999998,          7.5
   1451,   14.8000002,          7.5
   1452,   14.8999996,          7.5
   1453,          15.,          7.5
   1454,   15.1000004,          7.5
   1455,   15.1999998,          7.5
   1456,   15.3000002,          7.5
   1457,   15.3999996,          7.5
   1458,         15.5,          7.5
   1459,   15.6000004,          7.5
   1460,   15.6999998,          7.5
   1461,   15.8000002,          7.5
   1462,   15.8999996,          7.5
   1463,          16.,          7.5
   1464,   16.1000004,          7.5
   1465,   16.2000008,          7.5
   1466,   16.2999992,          7.5
   1467,   16.3999996,          7.5
   1468,         16.5,          7.5
   1469,   16.6000004,          7.5
   1470,   16.7000008,          7.5
   1471,   16.7999992,          7.5
   1472,   16.8999996,          7.5
   1473,          17.,          7.5
   1474,   17.1000004,          7.5
   1475,   17.2000008,          7.5
   1476,   17.2999992,          7.5
   1477,   17.3999996,          7.5
   1478,         17.5,          7.5
   1479,   17.6000004,          7.5
   1480,   17.7000008,          7.5
   1481,   17.7999992,          7.5
   1482,   17.8999996,          7.5
   1483,          18.,          7.5
   1484,   18.1000004,          7.5
   1485,   18.2000008,          7.5
   1486,   18.2999992,          7.5
   1487,   18.3999996,          7.5
   1488,         18.5,          7.5
   1489,   18.6000004,          7.5
   1490,   18.7000008,          7.5
   1491,   18.7999992,          7.5
   1492,   18.8999996,          7.5
   1493,          19.,          7.5
   1494,   19.1000004,          7.5
   1495,   19.2000008,          7.5
   1496,   19.2999992,          7.5
   1497,   19.3999996,          7.5
   1498,         19.5,          7.5
   1499,   19.6000004,          7.5
   1500,   19.7000008,          7.5
   1501,   19.7999992,          7.5
   1502,   19.8999996,          7.5
   1503,          20.,          7.5
*Element, type=COH2D4
   1,    1,    2,  503,  502
   2,    2,    3,  504,  503
   3,    3,    4,  505,  504
   4,    4,    5,  506,  505
   5,    5,    6,  507,  506
   6,    6,    7,  508,  507
   7,    7,    8,  509,  508
   8,    8,    9,  510,  509
   9,    9,   10,  511,  510
  10,   10,   11,  512,  511
  11,   11,   12,  513,  512
  12,   12,   13,  514,  513
  13,   13,   14,  515,  514
  14,   14,   15,  516,  515
  15,   15,   16,  517,  516
  16,   16,   17,  518,  517
  17,   17,   18,  519,  518
  18,   18,   19,  520,  519
  19,   19,   20,  521,  520
  20,   20,   21,  522,  521
  21,   21,   22,  523,  522
  22,   22,   23,  524,  523
  23,   23,   24,  525,  524
  24,   24,   25,  526,  525
  25,   25,   26,  527,  526
  26,   26,   27,  528,  527
  27,   27,   28,  529,  528
  28,   28,   29,  530,  529
  29,   29,   30,  531,  530
  30,   30,   31,  532,  531
  31,   31,   32,  533,  532
  32,   32,   33,  534,  533
  33,   33,   34,  535,  534
  34,   34,   35,  536,  535
  35,   35,   36,  537,  536
  36,   36,   37,  538,  537
  37,   37,   38,  539,  538
  38,   38,   39,  540,  539
  39,   39,   40,  541,  540
  40,   40,   41,  542,  541
  41,   41,   42,  543,  542
  42,   42,   43,  544,  543
  43,   43,   44,  545,  544
  44,   44,   45,  546,  545
  45,   45,   46,  547,  546
  46,   46,   47,  548,  547
  47,   47,   48,  549,  548
  48,   48,   49,  550,  549
  49,   49,   50,  551,  550
  50,   50,   51,  552,  551
  51,   51,   52,  553,  552
  52,   52,   53,  554,  553
  53,   53,   54,  555,  554
  54,   54,   55,  556,  555
  55,   55,   56,  557,  556
  56,   56,   57,  558,  557
  57,   57,   58,  559,  558
  58,   58,   59,  560,  559
  59,   59,   60,  561,  560
  60,   60,   61,  562,  561
  61,   61,   62,  563,  562
  62,   62,   63,  564,  563
  63,   63,   64,  565,  564
  64,   64,   65,  566,  565
  65,   65,   66,  567,  566
  66,   66,   67,  568,  567
  67,   67,   68,  569,  568
  68,   68,   69,  570,  569
  69,   69,   70,  571,  570
  70,   70,   71,  572,  571
  71,   71,   72,  573,  572
  72,   72,   73,  574,  573
  73,   73,   74,  575,  574
  74,   74,   75,  576,  575
  75,   75,   76,  577,  576
  76,   76,   77,  578,  577
  77,   77,   78,  579,  578
  78,   78,   79,  580,  579
  79,   79,   80,  581,  580
  80,   80,   81,  582,  581
  81,   81,   82,  583,  582
  82,   82,   83,  584,  583
  83,   83,   84,  585,  584
  84,   84,   85,  586,  585
  85,   85,   86,  587,  586
  86,   86,   87,  588,  587
  87,   87,   88,  589,  588
  88,   88,   89,  590,  589
  89,   89,   90,  591,  590
  90,   90,   91,  592,  591
  91,   91,   92,  593,  592
  92,   92,   93,  594,  593
  93,   93,   94,  595,  594
  94,   94,   95,  596,  595
  95,   95,   96,  597,  596
  96,   96,   97,  598,  597
  97,   97,   98,  599,  598
  98,   98,   99,  600,  599
  99,   99,  100,  601,  600
 100,  100,  101,  602,  601
 101,  101,  102,  603,  602
 102,  102,  103,  604,  603
 103,  103,  104,  605,  604
 104,  104,  105,  606,  605
 105,  105,  106,  607,  606
 106,  106,  107,  608,  607
 107,  107,  108,  609,  608
 108,  108,  109,  610,  609
 109,  109,  110,  611,  610
 110,  110,  111,  612,  611
 111,  111,  112,  613,  612
 112,  112,  113,  614,  613
 113,  113,  114,  615,  614
 114,  114,  115,  616,  615
 115,  115,  116,  617,  616
 116,  116,  117,  618,  617
 117,  117,  118,  619,  618
 118,  118,  119,  620,  619
 119,  119,  120,  621,  620
 120,  120,  121,  622,  621
 121,  121,  122,  623,  622
 122,  122,  123,  624,  623
 123,  123,  124,  625,  624
 124,  124,  125,  626,  625
 125,  125,  126,  627,  626
 126,  126,  127,  628,  627
 127,  127,  128,  629,  628
 128,  128,  129,  630,  629
 129,  129,  130,  631,  630
 130,  130,  131,  632,  631
 131,  131,  132,  633,  632
 132,  132,  133,  634,  633
 133,  133,  134,  635,  634
 134,  134,  135,  636,  635
 135,  135,  136,  637,  636
 136,  136,  137,  638,  637
 137,  137,  138,  639,  638
 138,  138,  139,  640,  639
 139,  139,  140,  641,  640
 140,  140,  141,  642,  641
 141,  141,  142,  643,  642
 142,  142,  143,  644,  643
 143,  143,  144,  645,  644
 144,  144,  145,  646,  645
 145,  145,  146,  647,  646
 146,  146,  147,  648,  647
 147,  147,  148,  649,  648
 148,  148,  149,  650,  649
 149,  149,  150,  651,  650
 150,  150,  151,  652,  651
 151,  151,  152,  653,  652
 152,  152,  153,  654,  653
 153,  153,  154,  655,  654
 154,  154,  155,  656,  655
 155,  155,  156,  657,  656
 156,  156,  157,  658,  657
 157,  157,  158,  659,  658
 158,  158,  159,  660,  659
 159,  159,  160,  661,  660
 160,  160,  161,  662,  661
 161,  161,  162,  663,  662
 162,  162,  163,  664,  663
 163,  163,  164,  665,  664
 164,  164,  165,  666,  665
 165,  165,  166,  667,  666
 166,  166,  167,  668,  667
 167,  167,  168,  669,  668
 168,  168,  169,  670,  669
 169,  169,  170,  671,  670
 170,  170,  171,  672,  671
 171,  171,  172,  673,  672
 172,  172,  173,  674,  673
 173,  173,  174,  675,  674
 174,  174,  175,  676,  675
 175,  175,  176,  677,  676
 176,  176,  177,  678,  677
 177,  177,  178,  679,  678
 178,  178,  179,  680,  679
 179,  179,  180,  681,  680
 180,  180,  181,  682,  681
 181,  181,  182,  683,  682
 182,  182,  183,  684,  683
 183,  183,  184,  685,  684
 184,  184,  185,  686,  685
 185,  185,  186,  687,  686
 186,  186,  187,  688,  687
 187,  187,  188,  689,  688
 188,  188,  189,  690,  689
 189,  189,  190,  691,  690
 190,  190,  191,  692,  691
 191,  191,  192,  693,  692
 192,  192,  193,  694,  693
 193,  193,  194,  695,  694
 194,  194,  195,  696,  695
 195,  195,  196,  697,  696
 196,  196,  197,  698,  697
 197,  197,  198,  699,  698
 198,  198,  199,  700,  699
 199,  199,  200,  701,  700
 200,  200,  201,  702,  701
 201,  201,  202,  703,  702
 202,  202,  203,  704,  703
 203,  203,  204,  705,  704
 204,  204,  205,  706,  705
 205,  205,  206,  707,  706
 206,  206,  207,  708,  707
 207,  207,  208,  709,  708
 208,  208,  209,  710,  709
 209,  209,  210,  711,  710
 210,  210,  211,  712,  711
 211,  211,  212,  713,  712
 212,  212,  213,  714,  713
 213,  213,  214,  715,  714
 214,  214,  215,  716,  715
 215,  215,  216,  717,  716
 216,  216,  217,  718,  717
 217,  217,  218,  719,  718
 218,  218,  219,  720,  719
 219,  219,  220,  721,  720
 220,  220,  221,  722,  721
 221,  221,  222,  723,  722
 222,  222,  223,  724,  723
 223,  223,  224,  725,  724
 224,  224,  225,  726,  725
 225,  225,  226,  727,  726
 226,  226,  227,  728,  727
 227,  227,  228,  729,  728
 228,  228,  229,  730,  729
 229,  229,  230,  731,  730
 230,  230,  231,  732,  731
 231,  231,  232,  733,  732
 232,  232,  233,  734,  733
 233,  233,  234,  735,  734
 234,  234,  235,  736,  735
 235,  235,  236,  737,  736
 236,  236,  237,  738,  737
 237,  237,  238,  739,  738
 238,  238,  239,  740,  739
 239,  239,  240,  741,  740
 240,  240,  241,  742,  741
 241,  241,  242,  743,  742
 242,  242,  243,  744,  743
 243,  243,  244,  745,  744
 244,  244,  245,  746,  745
 245,  245,  246,  747,  746
 246,  246,  247,  748,  747
 247,  247,  248,  749,  748
 248,  248,  249,  750,  749
 249,  249,  250,  751,  750
 250,  250,  251,  752,  751
 251,  251,  252,  753,  752
 252,  252,  253,  754,  753
 253,  253,  254,  755,  754
 254,  254,  255,  756,  755
 255,  255,  256,  757,  756
 256,  256,  257,  758,  757
 257,  257,  258,  759,  758
 258,  258,  259,  760,  759
 259,  259,  260,  761,  760
 260,  260,  261,  762,  761
 261,  261,  262,  763,  762
 262,  262,  263,  764,  763
 263,  263,  264,  765,  764
 264,  264,  265,  766,  765
 265,  265,  266,  767,  766
 266,  266,  267,  768,  767
 267,  267,  268,  769,  768
 268,  268,  269,  770,  769
 269,  269,  270,  771,  770
 270,  270,  271,  772,  771
 271,  271,  272,  773,  772
 272,  272,  273,  774,  773
 273,  273,  274,  775,  774
 274,  274,  275,  776,  775
 275,  275,  276,  777,  776
 276,  276,  277,  778,  777
 277,  277,  278,  779,  778
 278,  278,  279,  780,  779
 279,  279,  280,  781,  780
 280,  280,  281,  782,  781
 281,  281,  282,  783,  782
 282,  282,  283,  784,  783
 283,  283,  284,  785,  784
 284,  284,  285,  786,  785
 285,  285,  286,  787,  786
 286,  286,  287,  788,  787
 287,  287,  288,  789,  788
 288,  288,  289,  790,  789
 289,  289,  290,  791,  790
 290,  290,  291,  792,  791
 291,  291,  292,  793,  792
 292,  292,  293,  794,  793
 293,  293,  294,  795,  794
 294,  294,  295,  796,  795
 295,  295,  296,  797,  796
 296,  296,  297,  798,  797
 297,  297,  298,  799,  798
 298,  298,  299,  800,  799
 299,  299,  300,  801,  800
 300,  300,  301,  802,  801
 301,  301,  302,  803,  802
 302,  302,  303,  804,  803
 303,  303,  304,  805,  804
 304,  304,  305,  806,  805
 305,  305,  306,  807,  806
 306,  306,  307,  808,  807
 307,  307,  308,  809,  808
 308,  308,  309,  810,  809
 309,  309,  310,  811,  810
 310,  310,  311,  812,  811
 311,  311,  312,  813,  812
 312,  312,  313,  814,  813
 313,  313,  314,  815,  814
 314,  314,  315,  816,  815
 315,  315,  316,  817,  816
 316,  316,  317,  818,  817
 317,  317,  318,  819,  818
 318,  318,  319,  820,  819
 319,  319,  320,  821,  820
 320,  320,  321,  822,  821
 321,  321,  322,  823,  822
 322,  322,  323,  824,  823
 323,  323,  324,  825,  824
 324,  324,  325,  826,  825
 325,  325,  326,  827,  826
 326,  326,  327,  828,  827
 327,  327,  328,  829,  828
 328,  328,  329,  830,  829
 329,  329,  330,  831,  830
 330,  330,  331,  832,  831
 331,  331,  332,  833,  832
 332,  332,  333,  834,  833
 333,  333,  334,  835,  834
 334,  334,  335,  836,  835
 335,  335,  336,  837,  836
 336,  336,  337,  838,  837
 337,  337,  338,  839,  838
 338,  338,  339,  840,  839
 339,  339,  340,  841,  840
 340,  340,  341,  842,  841
 341,  341,  342,  843,  842
 342,  342,  343,  844,  843
 343,  343,  344,  845,  844
 344,  344,  345,  846,  845
 345,  345,  346,  847,  846
 346,  346,  347,  848,  847
 347,  347,  348,  849,  848
 348,  348,  349,  850,  849
 349,  349,  350,  851,  850
 350,  350,  351,  852,  851
 351,  351,  352,  853,  852
 352,  352,  353,  854,  853
 353,  353,  354,  855,  854
 354,  354,  355,  856,  855
 355,  355,  356,  857,  856
 356,  356,  357,  858,  857
 357,  357,  358,  859,  858
 358,  358,  359,  860,  859
 359,  359,  360,  861,  860
 360,  360,  361,  862,  861
 361,  361,  362,  863,  862
 362,  362,  363,  864,  863
 363,  363,  364,  865,  864
 364,  364,  365,  866,  865
 365,  365,  366,  867,  866
 366,  366,  367,  868,  867
 367,  367,  368,  869,  868
 368,  368,  369,  870,  869
 369,  369,  370,  871,  870
 370,  370,  371,  872,  871
 371,  371,  372,  873,  872
 372,  372,  373,  874,  873
 373,  373,  374,  875,  874
 374,  374,  375,  876,  875
 375,  375,  376,  877,  876
 376,  376,  377,  878,  877
 377,  377,  378,  879,  878
 378,  378,  379,  880,  879
 379,  379,  380,  881,  880
 380,  380,  381,  882,  881
 381,  381,  382,  883,  882
 382,  382,  383,  884,  883
 383,  383,  384,  885,  884
 384,  384,  385,  886,  885
 385,  385,  386,  887,  886
 386,  386,  387,  888,  887
 387,  387,  388,  889,  888
 388,  388,  389,  890,  889
 389,  389,  390,  891,  890
 390,  390,  391,  892,  891
 391,  391,  392,  893,  892
 392,  392,  393,  894,  893
 393,  393,  394,  895,  894
 394,  394,  395,  896,  895
 395,  395,  396,  897,  896
 396,  396,  397,  898,  897
 397,  397,  398,  899,  898
 398,  398,  399,  900,  899
 399,  399,  400,  901,  900
 400,  400,  401,  902,  901
 401,  401,  402,  903,  902
 402,  402,  403,  904,  903
 403,  403,  404,  905,  904
 404,  404,  405,  906,  905
 405,  405,  406,  907,  906
 406,  406,  407,  908,  907
 407,  407,  408,  909,  908
 408,  408,  409,  910,  909
 409,  409,  410,  911,  910
 410,  410,  411,  912,  911
 411,  411,  412,  913,  912
 412,  412,  413,  914,  913
 413,  413,  414,  915,  914
 414,  414,  415,  916,  915
 415,  415,  416,  917,  916
 416,  416,  417,  918,  917
 417,  417,  418,  919,  918
 418,  418,  419,  920,  919
 419,  419,  420,  921,  920
 420,  420,  421,  922,  921
 421,  421,  422,  923,  922
 422,  422,  423,  924,  923
 423,  423,  424,  925,  924
 424,  424,  425,  926,  925
 425,  425,  426,  927,  926
 426,  426,  427,  928,  927
 427,  427,  428,  929,  928
 428,  428,  429,  930,  929
 429,  429,  430,  931,  930
 430,  430,  431,  932,  931
 431,  431,  432,  933,  932
 432,  432,  433,  934,  933
 433,  433,  434,  935,  934
 434,  434,  435,  936,  935
 435,  435,  436,  937,  936
 436,  436,  437,  938,  937
 437,  437,  438,  939,  938
 438,  438,  439,  940,  939
 439,  439,  440,  941,  940
 440,  440,  441,  942,  941
 441,  441,  442,  943,  942
 442,  442,  443,  944,  943
 443,  443,  444,  945,  944
 444,  444,  445,  946,  945
 445,  445,  446,  947,  946
 446,  446,  447,  948,  947
 447,  447,  448,  949,  948
 448,  448,  449,  950,  949
 449,  449,  450,  951,  950
 450,  450,  451,  952,  951
 451,  451,  452,  953,  952
 452,  452,  453,  954,  953
 453,  453,  454,  955,  954
 454,  454,  455,  956,  955
 455,  455,  456,  957,  956
 456,  456,  457,  958,  957
 457,  457,  458,  959,  958
 458,  458,  459,  960,  959
 459,  459,  460,  961,  960
 460,  460,  461,  962,  961
 461,  461,  462,  963,  962
 462,  462,  463,  964,  963
 463,  463,  464,  965,  964
 464,  464,  465,  966,  965
 465,  465,  466,  967,  966
 466,  466,  467,  968,  967
 467,  467,  468,  969,  968
 468,  468,  469,  970,  969
 469,  469,  470,  971,  970
 470,  470,  471,  972,  971
 471,  471,  472,  973,  972
 472,  472,  473,  974,  973
 473,  473,  474,  975,  974
 474,  474,  475,  976,  975
 475,  475,  476,  977,  976
 476,  476,  477,  978,  977
 477,  477,  478,  979,  978
 478,  478,  479,  980,  979
 479,  479,  480,  981,  980
 480,  480,  481,  982,  981
 481,  481,  482,  983,  982
 482,  482,  483,  984,  983
 483,  483,  484,  985,  984
 484,  484,  485,  986,  985
 485,  485,  486,  987,  986
 486,  486,  487,  988,  987
 487,  487,  488,  989,  988
 488,  488,  489,  990,  989
 489,  489,  490,  991,  990
 490,  490,  491,  992,  991
 491,  491,  492,  993,  992
 492,  492,  493,  994,  993
 493,  493,  494,  995,  994
 494,  494,  495,  996,  995
 495,  495,  496,  997,  996
 496,  496,  497,  998,  997
 497,  497,  498,  999,  998
 498,  498,  499, 1000,  999
 499,  499,  500, 1001, 1000
 500,  500,  501, 1002, 1001
 501,  502,  503, 1004, 1003
 502,  503,  504, 1005, 1004
 503,  504,  505, 1006, 1005
 504,  505,  506, 1007, 1006
 505,  506,  507, 1008, 1007
 506,  507,  508, 1009, 1008
 507,  508,  509, 1010, 1009
 508,  509,  510, 1011, 1010
 509,  510,  511, 1012, 1011
 510,  511,  512, 1013, 1012
 511,  512,  513, 1014, 1013
 512,  513,  514, 1015, 1014
 513,  514,  515, 1016, 1015
 514,  515,  516, 1017, 1016
 515,  516,  517, 1018, 1017
 516,  517,  518, 1019, 1018
 517,  518,  519, 1020, 1019
 518,  519,  520, 1021, 1020
 519,  520,  521, 1022, 1021
 520,  521,  522, 1023, 1022
 521,  522,  523, 1024, 1023
 522,  523,  524, 1025, 1024
 523,  524,  525, 1026, 1025
 524,  525,  526, 1027, 1026
 525,  526,  527, 1028, 1027
 526,  527,  528, 1029, 1028
 527,  528,  529, 1030, 1029
 528,  529,  530, 1031, 1030
 529,  530,  531, 1032, 1031
 530,  531,  532, 1033, 1032
 531,  532,  533, 1034, 1033
 532,  533,  534, 1035, 1034
 533,  534,  535, 1036, 1035
 534,  535,  536, 1037, 1036
 535,  536,  537, 1038, 1037
 536,  537,  538, 1039, 1038
 537,  538,  539, 1040, 1039
 538,  539,  540, 1041, 1040
 539,  540,  541, 1042, 1041
 540,  541,  542, 1043, 1042
 541,  542,  543, 1044, 1043
 542,  543,  544, 1045, 1044
 543,  544,  545, 1046, 1045
 544,  545,  546, 1047, 1046
 545,  546,  547, 1048, 1047
 546,  547,  548, 1049, 1048
 547,  548,  549, 1050, 1049
 548,  549,  550, 1051, 1050
 549,  550,  551, 1052, 1051
 550,  551,  552, 1053, 1052
 551,  552,  553, 1054, 1053
 552,  553,  554, 1055, 1054
 553,  554,  555, 1056, 1055
 554,  555,  556, 1057, 1056
 555,  556,  557, 1058, 1057
 556,  557,  558, 1059, 1058
 557,  558,  559, 1060, 1059
 558,  559,  560, 1061, 1060
 559,  560,  561, 1062, 1061
 560,  561,  562, 1063, 1062
 561,  562,  563, 1064, 1063
 562,  563,  564, 1065, 1064
 563,  564,  565, 1066, 1065
 564,  565,  566, 1067, 1066
 565,  566,  567, 1068, 1067
 566,  567,  568, 1069, 1068
 567,  568,  569, 1070, 1069
 568,  569,  570, 1071, 1070
 569,  570,  571, 1072, 1071
 570,  571,  572, 1073, 1072
 571,  572,  573, 1074, 1073
 572,  573,  574, 1075, 1074
 573,  574,  575, 1076, 1075
 574,  575,  576, 1077, 1076
 575,  576,  577, 1078, 1077
 576,  577,  578, 1079, 1078
 577,  578,  579, 1080, 1079
 578,  579,  580, 1081, 1080
 579,  580,  581, 1082, 1081
 580,  581,  582, 1083, 1082
 581,  582,  583, 1084, 1083
 582,  583,  584, 1085, 1084
 583,  584,  585, 1086, 1085
 584,  585,  586, 1087, 1086
 585,  586,  587, 1088, 1087
 586,  587,  588, 1089, 1088
 587,  588,  589, 1090, 1089
 588,  589,  590, 1091, 1090
 589,  590,  591, 1092, 1091
 590,  591,  592, 1093, 1092
 591,  592,  593, 1094, 1093
 592,  593,  594, 1095, 1094
 593,  594,  595, 1096, 1095
 594,  595,  596, 1097, 1096
 595,  596,  597, 1098, 1097
 596,  597,  598, 1099, 1098
 597,  598,  599, 1100, 1099
 598,  599,  600, 1101, 1100
 599,  600,  601, 1102, 1101
 600,  601,  602, 1103, 1102
 601,  602,  603, 1104, 1103
 602,  603,  604, 1105, 1104
 603,  604,  605, 1106, 1105
 604,  605,  606, 1107, 1106
 605,  606,  607, 1108, 1107
 606,  607,  608, 1109, 1108
 607,  608,  609, 1110, 1109
 608,  609,  610, 1111, 1110
 609,  610,  611, 1112, 1111
 610,  611,  612, 1113, 1112
 611,  612,  613, 1114, 1113
 612,  613,  614, 1115, 1114
 613,  614,  615, 1116, 1115
 614,  615,  616, 1117, 1116
 615,  616,  617, 1118, 1117
 616,  617,  618, 1119, 1118
 617,  618,  619, 1120, 1119
 618,  619,  620, 1121, 1120
 619,  620,  621, 1122, 1121
 620,  621,  622, 1123, 1122
 621,  622,  623, 1124, 1123
 622,  623,  624, 1125, 1124
 623,  624,  625, 1126, 1125
 624,  625,  626, 1127, 1126
 625,  626,  627, 1128, 1127
 626,  627,  628, 1129, 1128
 627,  628,  629, 1130, 1129
 628,  629,  630, 1131, 1130
 629,  630,  631, 1132, 1131
 630,  631,  632, 1133, 1132
 631,  632,  633, 1134, 1133
 632,  633,  634, 1135, 1134
 633,  634,  635, 1136, 1135
 634,  635,  636, 1137, 1136
 635,  636,  637, 1138, 1137
 636,  637,  638, 1139, 1138
 637,  638,  639, 1140, 1139
 638,  639,  640, 1141, 1140
 639,  640,  641, 1142, 1141
 640,  641,  642, 1143, 1142
 641,  642,  643, 1144, 1143
 642,  643,  644, 1145, 1144
 643,  644,  645, 1146, 1145
 644,  645,  646, 1147, 1146
 645,  646,  647, 1148, 1147
 646,  647,  648, 1149, 1148
 647,  648,  649, 1150, 1149
 648,  649,  650, 1151, 1150
 649,  650,  651, 1152, 1151
 650,  651,  652, 1153, 1152
 651,  652,  653, 1154, 1153
 652,  653,  654, 1155, 1154
 653,  654,  655, 1156, 1155
 654,  655,  656, 1157, 1156
 655,  656,  657, 1158, 1157
 656,  657,  658, 1159, 1158
 657,  658,  659, 1160, 1159
 658,  659,  660, 1161, 1160
 659,  660,  661, 1162, 1161
 660,  661,  662, 1163, 1162
 661,  662,  663, 1164, 1163
 662,  663,  664, 1165, 1164
 663,  664,  665, 1166, 1165
 664,  665,  666, 1167, 1166
 665,  666,  667, 1168, 1167
 666,  667,  668, 1169, 1168
 667,  668,  669, 1170, 1169
 668,  669,  670, 1171, 1170
 669,  670,  671, 1172, 1171
 670,  671,  672, 1173, 1172
 671,  672,  673, 1174, 1173
 672,  673,  674, 1175, 1174
 673,  674,  675, 1176, 1175
 674,  675,  676, 1177, 1176
 675,  676,  677, 1178, 1177
 676,  677,  678, 1179, 1178
 677,  678,  679, 1180, 1179
 678,  679,  680, 1181, 1180
 679,  680,  681, 1182, 1181
 680,  681,  682, 1183, 1182
 681,  682,  683, 1184, 1183
 682,  683,  684, 1185, 1184
 683,  684,  685, 1186, 1185
 684,  685,  686, 1187, 1186
 685,  686,  687, 1188, 1187
 686,  687,  688, 1189, 1188
 687,  688,  689, 1190, 1189
 688,  689,  690, 1191, 1190
 689,  690,  691, 1192, 1191
 690,  691,  692, 1193, 1192
 691,  692,  693, 1194, 1193
 692,  693,  694, 1195, 1194
 693,  694,  695, 1196, 1195
 694,  695,  696, 1197, 1196
 695,  696,  697, 1198, 1197
 696,  697,  698, 1199, 1198
 697,  698,  699, 1200, 1199
 698,  699,  700, 1201, 1200
 699,  700,  701, 1202, 1201
 700,  701,  702, 1203, 1202
 701,  702,  703, 1204, 1203
 702,  703,  704, 1205, 1204
 703,  704,  705, 1206, 1205
 704,  705,  706, 1207, 1206
 705,  706,  707, 1208, 1207
 706,  707,  708, 1209, 1208
 707,  708,  709, 1210, 1209
 708,  709,  710, 1211, 1210
 709,  710,  711, 1212, 1211
 710,  711,  712, 1213, 1212
 711,  712,  713, 1214, 1213
 712,  713,  714, 1215, 1214
 713,  714,  715, 1216, 1215
 714,  715,  716, 1217, 1216
 715,  716,  717, 1218, 1217
 716,  717,  718, 1219, 1218
 717,  718,  719, 1220, 1219
 718,  719,  720, 1221, 1220
 719,  720,  721, 1222, 1221
 720,  721,  722, 1223, 1222
 721,  722,  723, 1224, 1223
 722,  723,  724, 1225, 1224
 723,  724,  725, 1226, 1225
 724,  725,  726, 1227, 1226
 725,  726,  727, 1228, 1227
 726,  727,  728, 1229, 1228
 727,  728,  729, 1230, 1229
 728,  729,  730, 1231, 1230
 729,  730,  731, 1232, 1231
 730,  731,  732, 1233, 1232
 731,  732,  733, 1234, 1233
 732,  733,  734, 1235, 1234
 733,  734,  735, 1236, 1235
 734,  735,  736, 1237, 1236
 735,  736,  737, 1238, 1237
 736,  737,  738, 1239, 1238
 737,  738,  739, 1240, 1239
 738,  739,  740, 1241, 1240
 739,  740,  741, 1242, 1241
 740,  741,  742, 1243, 1242
 741,  742,  743, 1244, 1243
 742,  743,  744, 1245, 1244
 743,  744,  745, 1246, 1245
 744,  745,  746, 1247, 1246
 745,  746,  747, 1248, 1247
 746,  747,  748, 1249, 1248
 747,  748,  749, 1250, 1249
 748,  749,  750, 1251, 1250
 749,  750,  751, 1252, 1251
 750,  751,  752, 1253, 1252
 751,  752,  753, 1254, 1253
 752,  753,  754, 1255, 1254
 753,  754,  755, 1256, 1255
 754,  755,  756, 1257, 1256
 755,  756,  757, 1258, 1257
 756,  757,  758, 1259, 1258
 757,  758,  759, 1260, 1259
 758,  759,  760, 1261, 1260
 759,  760,  761, 1262, 1261
 760,  761,  762, 1263, 1262
 761,  762,  763, 1264, 1263
 762,  763,  764, 1265, 1264
 763,  764,  765, 1266, 1265
 764,  765,  766, 1267, 1266
 765,  766,  767, 1268, 1267
 766,  767,  768, 1269, 1268
 767,  768,  769, 1270, 1269
 768,  769,  770, 1271, 1270
 769,  770,  771, 1272, 1271
 770,  771,  772, 1273, 1272
 771,  772,  773, 1274, 1273
 772,  773,  774, 1275, 1274
 773,  774,  775, 1276, 1275
 774,  775,  776, 1277, 1276
 775,  776,  777, 1278, 1277
 776,  777,  778, 1279, 1278
 777,  778,  779, 1280, 1279
 778,  779,  780, 1281, 1280
 779,  780,  781, 1282, 1281
 780,  781,  782, 1283, 1282
 781,  782,  783, 1284, 1283
 782,  783,  784, 1285, 1284
 783,  784,  785, 1286, 1285
 784,  785,  786, 1287, 1286
 785,  786,  787, 1288, 1287
 786,  787,  788, 1289, 1288
 787,  788,  789, 1290, 1289
 788,  789,  790, 1291, 1290
 789,  790,  791, 1292, 1291
 790,  791,  792, 1293, 1292
 791,  792,  793, 1294, 1293
 792,  793,  794, 1295, 1294
 793,  794,  795, 1296, 1295
 794,  795,  796, 1297, 1296
 795,  796,  797, 1298, 1297
 796,  797,  798, 1299, 1298
 797,  798,  799, 1300, 1299
 798,  799,  800, 1301, 1300
 799,  800,  801, 1302, 1301
 800,  801,  802, 1303, 1302
 801,  802,  803, 1304, 1303
 802,  803,  804, 1305, 1304
 803,  804,  805, 1306, 1305
 804,  805,  806, 1307, 1306
 805,  806,  807, 1308, 1307
 806,  807,  808, 1309, 1308
 807,  808,  809, 1310, 1309
 808,  809,  810, 1311, 1310
 809,  810,  811, 1312, 1311
 810,  811,  812, 1313, 1312
 811,  812,  813, 1314, 1313
 812,  813,  814, 1315, 1314
 813,  814,  815, 1316, 1315
 814,  815,  816, 1317, 1316
 815,  816,  817, 1318, 1317
 816,  817,  818, 1319, 1318
 817,  818,  819, 1320, 1319
 818,  819,  820, 1321, 1320
 819,  820,  821, 1322, 1321
 820,  821,  822, 1323, 1322
 821,  822,  823, 1324, 1323
 822,  823,  824, 1325, 1324
 823,  824,  825, 1326, 1325
 824,  825,  826, 1327, 1326
 825,  826,  827, 1328, 1327
 826,  827,  828, 1329, 1328
 827,  828,  829, 1330, 1329
 828,  829,  830, 1331, 1330
 829,  830,  831, 1332, 1331
 830,  831,  832, 1333, 1332
 831,  832,  833, 1334, 1333
 832,  833,  834, 1335, 1334
 833,  834,  835, 1336, 1335
 834,  835,  836, 1337, 1336
 835,  836,  837, 1338, 1337
 836,  837,  838, 1339, 1338
 837,  838,  839, 1340, 1339
 838,  839,  840, 1341, 1340
 839,  840,  841, 1342, 1341
 840,  841,  842, 1343, 1342
 841,  842,  843, 1344, 1343
 842,  843,  844, 1345, 1344
 843,  844,  845, 1346, 1345
 844,  845,  846, 1347, 1346
 845,  846,  847, 1348, 1347
 846,  847,  848, 1349, 1348
 847,  848,  849, 1350, 1349
 848,  849,  850, 1351, 1350
 849,  850,  851, 1352, 1351
 850,  851,  852, 1353, 1352
 851,  852,  853, 1354, 1353
 852,  853,  854, 1355, 1354
 853,  854,  855, 1356, 1355
 854,  855,  856, 1357, 1356
 855,  856,  857, 1358, 1357
 856,  857,  858, 1359, 1358
 857,  858,  859, 1360, 1359
 858,  859,  860, 1361, 1360
 859,  860,  861, 1362, 1361
 860,  861,  862, 1363, 1362
 861,  862,  863, 1364, 1363
 862,  863,  864, 1365, 1364
 863,  864,  865, 1366, 1365
 864,  865,  866, 1367, 1366
 865,  866,  867, 1368, 1367
 866,  867,  868, 1369, 1368
 867,  868,  869, 1370, 1369
 868,  869,  870, 1371, 1370
 869,  870,  871, 1372, 1371
 870,  871,  872, 1373, 1372
 871,  872,  873, 1374, 1373
 872,  873,  874, 1375, 1374
 873,  874,  875, 1376, 1375
 874,  875,  876, 1377, 1376
 875,  876,  877, 1378, 1377
 876,  877,  878, 1379, 1378
 877,  878,  879, 1380, 1379
 878,  879,  880, 1381, 1380
 879,  880,  881, 1382, 1381
 880,  881,  882, 1383, 1382
 881,  882,  883, 1384, 1383
 882,  883,  884, 1385, 1384
 883,  884,  885, 1386, 1385
 884,  885,  886, 1387, 1386
 885,  886,  887, 1388, 1387
 886,  887,  888, 1389, 1388
 887,  888,  889, 1390, 1389
 888,  889,  890, 1391, 1390
 889,  890,  891, 1392, 1391
 890,  891,  892, 1393, 1392
 891,  892,  893, 1394, 1393
 892,  893,  894, 1395, 1394
 893,  894,  895, 1396, 1395
 894,  895,  896, 1397, 1396
 895,  896,  897, 1398, 1397
 896,  897,  898, 1399, 1398
 897,  898,  899, 1400, 1399
 898,  899,  900, 1401, 1400
 899,  900,  901, 1402, 1401
 900,  901,  902, 1403, 1402
 901,  902,  903, 1404, 1403
 902,  903,  904, 1405, 1404
 903,  904,  905, 1406, 1405
 904,  905,  906, 1407, 1406
 905,  906,  907, 1408, 1407
 906,  907,  908, 1409, 1408
 907,  908,  909, 1410, 1409
 908,  909,  910, 1411, 1410
 909,  910,  911, 1412, 1411
 910,  911,  912, 1413, 1412
 911,  912,  913, 1414, 1413
 912,  913,  914, 1415, 1414
 913,  914,  915, 1416, 1415
 914,  915,  916, 1417, 1416
 915,  916,  917, 1418, 1417
 916,  917,  918, 1419, 1418
 917,  918,  919, 1420, 1419
 918,  919,  920, 1421, 1420
 919,  920,  921, 1422, 1421
 920,  921,  922, 1423, 1422
 921,  922,  923, 1424, 1423
 922,  923,  924, 1425, 1424
 923,  924,  925, 1426, 1425
 924,  925,  926, 1427, 1426
 925,  926,  927, 1428, 1427
 926,  927,  928, 1429, 1428
 927,  928,  929, 1430, 1429
 928,  929,  930, 1431, 1430
 929,  930,  931, 1432, 1431
 930,  931,  932, 1433, 1432
 931,  932,  933, 1434, 1433
 932,  933,  934, 1435, 1434
 933,  934,  935, 1436, 1435
 934,  935,  936, 1437, 1436
 935,  936,  937, 1438, 1437
 936,  937,  938, 1439, 1438
 937,  938,  939, 1440, 1439
 938,  939,  940, 1441, 1440
 939,  940,  941, 1442, 1441
 940,  941,  942, 1443, 1442
 941,  942,  943, 1444, 1443
 942,  943,  944, 1445, 1444
 943,  944,  945, 1446, 1445
 944,  945,  946, 1447, 1446
 945,  946,  947, 1448, 1447
 946,  947,  948, 1449, 1448
 947,  948,  949, 1450, 1449
 948,  949,  950, 1451, 1450
 949,  950,  951, 1452, 1451
 950,  951,  952, 1453, 1452
 951,  952,  953, 1454, 1453
 952,  953,  954, 1455, 1454
 953,  954,  955, 1456, 1455
 954,  955,  956, 1457, 1456
 955,  956,  957, 1458, 1457
 956,  957,  958, 1459, 1458
 957,  958,  959, 1460, 1459
 958,  959,  960, 1461, 1460
 959,  960,  961, 1462, 1461
 960,  961,  962, 1463, 1462
 961,  962,  963, 1464, 1463
 962,  963,  964, 1465, 1464
 963,  964,  965, 1466, 1465
 964,  965,  966, 1467, 1466
 965,  966,  967, 1468, 1467
 966,  967,  968, 1469, 1468
 967,  968,  969, 1470, 1469
 968,  969,  970, 1471, 1470
 969,  970,  971, 1472, 1471
 970,  971,  972, 1473, 1472
 971,  972,  973, 1474, 1473
 972,  973,  974, 1475, 1474
 973,  974,  975, 1476, 1475
 974,  975,  976, 1477, 1476
 975,  976,  977, 1478, 1477
 976,  977,  978, 1479, 1478
 977,  978,  979, 1480, 1479
 978,  979,  980, 1481, 1480
 979,  980,  981, 1482, 1481
 980,  981,  982, 1483, 1482
 981,  982,  983, 1484, 1483
 982,  983,  984, 1485, 1484
 983,  984,  985, 1486, 1485
 984,  985,  986, 1487, 1486
 985,  986,  987, 1488, 1487
 986,  987,  988, 1489, 1488
 987,  988,  989, 1490, 1489
 988,  989,  990, 1491, 1490
 989,  990,  991, 1492, 1491
 990,  991,  992, 1493, 1492
 991,  992,  993, 1494, 1493
 992,  993,  994, 1495, 1494
 993,  994,  995, 1496, 1495
 994,  995,  996, 1497, 1496
 995,  996,  997, 1498, 1497
 996,  997,  998, 1499, 1498
 997,  998,  999, 1500, 1499
 998,  999, 1000, 1501, 1500
 999, 1000, 1001, 1502, 1501
1000, 1001, 1002, 1503, 1502
*Nset, nset=Set-1, generate
    1,  1503,     1
*Elset, elset=Set-1, generate
    1,  1000,     1
*Nset, nset=Set-2, generate
    1,  1503,     1
*Elset, elset=Set-2, generate
    1,  1000,     1
** Section: cohesive
*Cohesive Section, elset=Set-2, controls=EC-1, material=cohesive, response=TRACTION SEPARATION, thickness=GEOMETRY
, 1.
*End Part
**  
**
** ASSEMBLY
**
*Assembly, name=Assembly
**  
*Instance, name=Rigid_Substrate-1, part=Rigid_Substrate
*End Instance
**  
*Instance, name=Thin_Film-1, part=Thin_Film
        -14.,          7.2,           0.
*End Instance
**  
*Instance, name=cohesive-1, part=cohesive
        -20.,         -0.3,           0.
*End Instance
**  
*Node
      1,  0.800000012,   15.1999998,           0.
*Node
      2,          55.,          3.5,           0.
*Nset, nset=LOAD-POINT
 1,
*Nset, nset=Set-4, instance=Rigid_Substrate-1, generate
    1,  3003,     1
*Elset, elset=Set-4, instance=Rigid_Substrate-1, generate
    1,  2000,     1
*Nset, nset=Set-5
 1,
*Nset, nset=Set-6
 2,
*Nset, nset=m_Set-2
 1,
*Nset, nset=m_Set-3
 2,
*Elset, elset=_m_Surf-1_S4, internal, instance=Thin_Film-1, generate
  397,  3391,     6
*Surface, type=ELEMENT, name=m_Surf-1
_m_Surf-1_S4, S4
*Elset, elset=_m_Surf-3_S2, internal, instance=Rigid_Substrate-1, generate
    2,  1000,     2
*Surface, type=ELEMENT, name=m_Surf-3
_m_Surf-3_S2, S2
*Elset, elset=_s_Surf-1_S3, internal, instance=cohesive-1, generate
  501,  1000,     1
*Surface, type=ELEMENT, name=s_Surf-1
_s_Surf-1_S3, S3
*Elset, elset=_s_Surf-3_S1, internal, instance=cohesive-1, generate
   1,  500,    1
*Surface, type=ELEMENT, name=s_Surf-3
_s_Surf-3_S1, S1
*Elset, elset=_s_Surf-5_S3, internal, instance=Thin_Film-1, generate
 295,  300,    1
*Surface, type=ELEMENT, name=s_Surf-5
_s_Surf-5_S3, S3
*Elset, elset=_s_Surf-6_S3, internal, instance=Rigid_Substrate-1
 1999, 2000
*Surface, type=ELEMENT, name=s_Surf-6
_s_Surf-6_S3, S3
** Constraint: Constraint-3
*Coupling, constraint name=Constraint-3, ref node=m_Set-2, surface=s_Surf-5
*Kinematic
** Constraint: Constraint-4
*Coupling, constraint name=Constraint-4, ref node=m_Set-3, surface=s_Surf-6
*Kinematic
** Constraint: coh_bot
*Tie, name=coh_bot, adjust=yes
s_Surf-3, m_Surf-3
** Constraint: coh_top
*Tie, name=coh_top, adjust=yes
s_Surf-1, m_Surf-1
*End Assembly
** 
** ELEMENT CONTROLS
** 
*Section Controls, name=EC-1, VISCOSITY=1e-05
1., 1., 1.
** 
** MATERIALS
** 
*Material, name=Adherend
*Elastic
70000., 0.3
*Material, name=Adhesive
*Elastic
1000., 0.33
*Material, name=cohesive
*Damage Initiation, criterion=QUADS
 0.1, 0.1, 0.1
*Damage Evolution, type=ENERGY, mixed mode behavior=BK, power=1.75
 0.12, 0.12, 0.12
*Elastic, type=TRACTION
 3.06, 1.06, 1.06
** 
** BOUNDARY CONDITIONS
** 
** Name: BC-1 Type: Symmetry/Antisymmetry/Encastre
*Boundary
Set-4, YSYMM
** ----------------------------------------------------------------
** 
** STEP: Step-1
** 
*Step, name=Step-1, nlgeom=YES, inc=10000
*Static
1e-05, 10., 1e-15, 10.
** 
** BOUNDARY CONDITIONS
** 
** Name: BC-2 Type: Displacement/Rotation
*Boundary
Set-5, 1, 1
Set-5, 2, 2, 30.
Set-5, 6, 6
** Name: BC-3 Type: Displacement/Rotation
*Boundary
Set-6, 1, 1, 30.
Set-6, 2, 2
Set-6, 6, 6
** 
** OUTPUT REQUESTS
** 
*Restart, write, frequency=0
** 
** FIELD OUTPUT: F-Output-1
** 
*Output, field
*Node Output, variable=PRESELECT
*Element Output, directions=YES
LE, PE, PEEQ, PEMAG, S, STATUS
*Contact Output, variable=PRESELECT
** 
** HISTORY OUTPUT: H-Output-1
** 
*Output, history
*Node Output, nset=LOAD-POINT
RF2, U2
*End Step
